LAMMPS Atom File

1188 atoms
0 bonds
0 angles
0 dihedrals
0 impropers

5 atom types
0 bond types
0 angles types

0  27.1381359099  xlo xhi
0  30.0747413634  ylo yhi
0  24.2993874168  zlo zhi
0  -13.2900235992  0 xy xz yz

Masses

   1  65.380000
   2  14.006700
   3  15.999000
   4  12.011000
   5  1.007840

Atoms

1        1        1      0.0     -3.6617318298709239E-01  5.2658853768106151E-01  3.5507661606091889E+00
2        1        1      0.0      7.1972704182751546E+00  5.5390449735209870E+00  4.9902348242582789E-01
3        1        1      0.0      4.9822613502850688E+00  9.4983255114031255E+00  4.5489241901761117E+00
4        1        1      0.0     -2.5811708082778733E+00  4.4858681160922274E+00  7.6006611255666847E+00
5        1        2      0.0     -1.3528466029270576E+00  8.8927693697131396E+00  2.9765963745739530E+00
6        1        2      0.0      8.1839475267250972E+00  3.8803121577975408E+00  1.0731934108511441E+00
7        1        2      0.0      5.9689443169675540E+00  1.1321457704338378E+00  5.1230889984447110E+00
8        1        2      0.0     -3.5678498044811962E+00  6.1446016916915589E+00  7.0264948387052426E+00
9        1        2      0.0      6.3881092302606195E+00  8.5849286237189872E+00  3.2666829617972382E+00
10       1        2      0.0      4.4299224459466408E-01  3.5724729366527601E+00  7.8310764883322248E-01
11       1        2      0.0     -1.7720120653503131E+00  1.4399856482612419E+00  4.8330027010602050E+00
12       1        2      0.0      4.1731060792152155E+00  6.4524401016954549E+00  7.3165806703386114E+00
13       1        2      0.0      7.1553505862051328E+00  7.0723850072015866E+00  1.8330024598227943E+00
14       1        2      0.0     -3.2424893411525546E-01  2.0599265454745748E+00  2.2167841475757903E+00
15       1        2      0.0     -2.5392516005693500E+00  2.9525282232706602E+00  6.2666829354292997E+00
16       1        2      0.0      4.9403454328931504E+00  7.9649841667298160E+00  5.8829010149879251E+00
17       1        3      0.0      1.0131142749373323E+00  7.0821922207176380E-01  5.0292886604292972E+00
18       1        3      0.0      1.3879821002154553E+00  5.7206759994210126E+00  7.1202922515423630E+00
19       1        3      0.0      3.6029849060644881E+00  9.3166941753097934E+00  3.0703942573537928E+00
20       1        3      0.0      3.2281184571124135E+00  4.3042373278537500E+00  9.7939000856195602E-01
21       1        3      0.0      3.1721155819610276E+00  3.2807493725997300E-01  5.5489913876140822E+00
22       1        3      0.0     -7.7101977972149904E-01  5.3405330401428373E+00  6.6005897197168375E+00
23       1        3      0.0      1.4439837614829516E+00  9.6968399741938587E+00  2.5506933457128018E+00
24       1        3      0.0      5.3871183661280124E+00  4.6843832810183850E+00  1.4990937245390046E+00
25       1        4      0.0     -9.2285760509350434E-01  7.9727639408443265E+00  2.1126763567444038E+00
26       1        4      0.0      7.7539587682234412E+00  2.9603052246133466E+00  1.9371116693600798E+00
27       1        4      0.0      5.5389565578561744E+00  2.0521507007567097E+00  5.9870095907750747E+00
28       1        4      0.0     -3.1378618772941951E+00  7.0646069392314121E+00  6.1625746822081542E+00
29       1        4      0.0      6.0991525127403872E+00  7.4905148091476326E+00  2.5698322835405563E+00
30       1        4      0.0      7.3194922867056711E-01  2.4780579607389006E+00  1.4799560750765659E+00
31       1        4      0.0     -1.4830539364452806E+00  2.5343992076642299E+00  5.5298526586987009E+00
32       1        4      0.0      3.8841478425021356E+00  7.5468537468696377E+00  6.6197304829648234E+00
33       1        4      0.0      2.1886390243639808E+00  2.9848659807312228E-01  4.7620254329086951E+00
34       1        4      0.0      2.1245615663944645E-01  5.3109441047262207E+00  7.3875550580814267E+00
35       1        4      0.0      2.4274592218062963E+00  9.7264272675008403E+00  3.3376563337592846E+00
36       1        4      0.0      4.4036430165843035E+00  4.7139708555317235E+00  7.1212841723253850E-01
37       1        5      0.0      8.0217863628746125E-02  7.9754140378473934E+00  1.7006827015749959E+00
38       1        5      0.0      6.7508830552175088E+00  2.9629521444328488E+00  2.3491055206820404E+00
39       1        5      0.0      4.5358821829069589E+00  2.0495017899359596E+00  6.3990040012211056E+00
40       1        5      0.0     -2.1347871807079746E+00  7.0619594546458915E+00  5.7505799042499710E+00
41       1        5      0.0      5.1340849654181202E+00  6.9980625954243552E+00  2.5930508847547706E+00
42       1        5      0.0      1.6970167099857785E+00  1.9856059505029700E+00  1.4567370783382403E+00
43       1        5      0.0     -5.1798624420679984E-01  3.0268524911075989E+00  5.5066342722338808E+00
44       1        5      0.0      2.9190802773536779E+00  8.0393073513518942E+00  6.6429481220794093E+00
45       1        1      0.0     -4.7961810493870924E+00  5.2658853768106151E-01  1.1650561966209187E+01
46       1        1      0.0      2.7672625518751550E+00  5.5390449735209870E+00  8.5988192880258261E+00
47       1        1      0.0      5.5225348388506790E-01  9.4983255114031255E+00  1.2648719995776112E+01
48       1        1      0.0     -7.0111786746778746E+00  4.4858681160922274E+00  1.5700456931166686E+01
49       1        2      0.0     -5.7828544693270585E+00  8.8927693697131396E+00  1.1076392180173954E+01
50       1        2      0.0      3.7539396603250967E+00  3.8803121577975408E+00  9.1729892164511426E+00
51       1        2      0.0      1.5389364505675536E+00  1.1321457704338378E+00  1.3222884804044710E+01
52       1        2      0.0     -7.9978576708811966E+00  6.1446016916915589E+00  1.5126290644305243E+01
53       1        2      0.0      1.9581013638606195E+00  8.5849286237189872E+00  1.1366478767397238E+01
54       1        2      0.0     -3.9870156218053361E+00  3.5724729366527601E+00  8.8829034544332206E+00
55       1        2      0.0     -6.2020199317503133E+00  1.4399856482612419E+00  1.2932798506660204E+01
56       1        2      0.0     -2.5690178718478529E-01  6.4524401016954549E+00  1.5416376475938611E+01
57       1        2      0.0      2.7253427198051323E+00  7.0723850072015866E+00  9.9327982654227949E+00
58       1        2      0.0     -4.7542568005152566E+00  2.0599265454745748E+00  1.0316579953175790E+01
59       1        2      0.0     -6.9692594669693504E+00  2.9525282232706602E+00  1.4366478741029299E+01
60       1        2      0.0      5.1033756649315010E-01  7.9649841667298160E+00  1.3982696820587924E+01
61       1        3      0.0     -3.4168935914626686E+00  7.0821922207176380E-01  1.3129084466029298E+01
62       1        3      0.0     -3.0420257661845453E+00  5.7206759994210126E+00  1.5220088057142362E+01
63       1        3      0.0     -8.2702296033551215E-01  9.3166941753097934E+00  1.1170190062953791E+01
64       1        3      0.0     -1.2018894092875865E+00  4.3042373278537500E+00  9.0791858141619546E+00
65       1        3      0.0     -1.2578922844389724E+00  3.2807493725997300E-01  1.3648787193214080E+01
66       1        3      0.0     -5.2010276461214993E+00  5.3405330401428373E+00  1.4700385525316836E+01
67       1        3      0.0     -2.9860241049170488E+00  9.6968399741938587E+00  1.0650489151312801E+01
68       1        3      0.0      9.5711049972801265E-01  4.6843832810183850E+00  9.5988895301390027E+00
69       1        4      0.0     -5.3528654714935051E+00  7.9727639408443265E+00  1.0212472162344405E+01
70       1        4      0.0      3.3239509018234412E+00  2.9603052246133466E+00  1.0036907474960080E+01
71       1        4      0.0      1.1089486914561737E+00  2.0521507007567097E+00  1.4086805396375075E+01
72       1        4      0.0     -7.5678697436941960E+00  7.0646069392314121E+00  1.4262370487808154E+01
73       1        4      0.0      1.6691446463403867E+00  7.4905148091476326E+00  1.0669628089140557E+01
74       1        4      0.0     -3.6980586377294329E+00  2.4780579607389006E+00  9.5797518806765645E+00
75       1        4      0.0     -5.9130618028452808E+00  2.5343992076642299E+00  1.3629648464298700E+01
76       1        4      0.0     -5.4586002389786470E-01  7.5468537468696377E+00  1.4719526288564822E+01
77       1        4      0.0     -2.2413688420360192E+00  2.9848659807312228E-01  1.2861821238508693E+01
78       1        4      0.0     -4.2175517097605537E+00  5.3109441047262207E+00  1.5487350863681426E+01
79       1        4      0.0     -2.0025486445937046E+00  9.7264272675008403E+00  1.1437452139359284E+01
80       1        4      0.0     -2.6364849815697252E-02  4.7139708555317235E+00  8.8119242228325376E+00
81       1        5      0.0     -4.3497900027712539E+00  7.9754140378473934E+00  9.8004785071749954E+00
82       1        5      0.0      2.3208751888175083E+00  2.9629521444328488E+00  1.0448901326282039E+01
83       1        5      0.0      1.0587431650695828E-01  2.0495017899359596E+00  1.4498799806821106E+01
84       1        5      0.0     -6.5647950471079755E+00  7.0619594546458915E+00  1.3850375709849972E+01
85       1        5      0.0      7.0407709901811932E-01  6.9980625954243552E+00  1.0692846690354770E+01
86       1        5      0.0     -2.7329911564142222E+00  1.9856059505029700E+00  9.5565328839382406E+00
87       1        5      0.0     -4.9479941106068006E+00  3.0268524911075989E+00  1.3606430077833879E+01
88       1        5      0.0     -1.5109275890463225E+00  8.0393073513518942E+00  1.4742743927679410E+01
89       1        1      0.0     -9.2261889157870947E+00  5.2658853768106151E-01  1.9750357771809188E+01
90       1        1      0.0     -1.6627453145248456E+00  5.5390449735209870E+00  1.6698615093625826E+01
91       1        1      0.0     -3.8777543825149325E+00  9.4983255114031255E+00  2.0748515801376112E+01
92       1        1      0.0     -1.1441186541077874E+01  4.4858681160922274E+00  2.3800252736766684E+01
93       1        2      0.0     -1.0212862335727060E+01  8.8927693697131396E+00  1.9176187985773954E+01
94       1        2      0.0     -6.7606820607490381E-01  3.8803121577975408E+00  1.7272785022051142E+01
95       1        2      0.0     -2.8910714158324469E+00  1.1321457704338378E+00  2.1322680609644710E+01
96       1        2      0.0     -1.2427865537281196E+01  6.1446016916915589E+00  2.3226086449905239E+01
97       1        2      0.0     -2.4719065025393809E+00  8.5849286237189872E+00  1.9466274572997236E+01
98       1        2      0.0     -8.4170234882053361E+00  3.5724729366527601E+00  1.6982699260033222E+01
99       1        2      0.0     -1.0632027798150313E+01  1.4399856482612419E+00  2.1032594312260205E+01
100      1        2      0.0     -4.6869096535847854E+00  6.4524401016954549E+00  2.3516172281538612E+01
101      1        2      0.0     -1.7046651465948681E+00  7.0723850072015866E+00  1.8032594071022793E+01
102      1        2      0.0     -9.1842646669152561E+00  2.0599265454745748E+00  1.8416375758775789E+01
103      1        2      0.0     -1.1399267333369350E+01  2.9525282232706602E+00  2.2466274546629300E+01
104      1        2      0.0     -3.9196702999068505E+00  7.9649841667298160E+00  2.2082492626187925E+01
105      1        3      0.0     -7.8469014578626695E+00  7.0821922207176380E-01  2.1228880271629297E+01
106      1        3      0.0     -7.4720336325845453E+00  5.7206759994210126E+00  2.3319883862742362E+01
107      1        3      0.0     -5.2570308267355124E+00  9.3166941753097934E+00  1.9269985868553793E+01
108      1        3      0.0     -5.6318972756875869E+00  4.3042373278537500E+00  1.7178981619761956E+01
109      1        3      0.0     -5.6879001508389724E+00  3.2807493725997300E-01  2.1748582998814079E+01
110      1        3      0.0     -9.6310355125214997E+00  5.3405330401428373E+00  2.2800181330916836E+01
111      1        3      0.0     -7.4160319713170484E+00  9.6968399741938587E+00  1.8750284956912800E+01
112      1        3      0.0     -3.4728973666719880E+00  4.6843832810183850E+00  1.7698685335739004E+01
113      1        4      0.0     -9.7828733378935055E+00  7.9727639408443265E+00  1.8312267967944404E+01
114      1        4      0.0     -1.1060569645765592E+00  2.9603052246133466E+00  1.8136703280560077E+01
115      1        4      0.0     -3.3210591749438265E+00  2.0521507007567097E+00  2.2186601201975073E+01
116      1        4      0.0     -1.1997877610094196E+01  7.0646069392314121E+00  2.2362166293408155E+01
117      1        4      0.0     -2.7608632200596137E+00  7.4905148091476326E+00  1.8769423894740555E+01
118      1        4      0.0     -8.1280665041294338E+00  2.4780579607389006E+00  1.7679547686276564E+01
119      1        4      0.0     -1.0343069669245281E+01  2.5343992076642299E+00  2.1729444269898700E+01
120      1        4      0.0     -4.9758678902978648E+00  7.5468537468696377E+00  2.2819322094164821E+01
121      1        4      0.0     -6.6713767084360196E+00  2.9848659807312228E-01  2.0961617044108692E+01
122      1        4      0.0     -8.6475595761605550E+00  5.3109441047262207E+00  2.3587146669281424E+01
123      1        4      0.0     -6.4325565109937051E+00  9.7264272675008403E+00  1.9537247944959283E+01
124      1        4      0.0     -4.4563727162156983E+00  4.7139708555317235E+00  1.6911720028432541E+01
125      1        5      0.0     -8.7797978691712544E+00  7.9754140378473934E+00  1.7900274312774993E+01
126      1        5      0.0     -2.1091326775824930E+00  2.9629521444328488E+00  1.8548697131882040E+01
127      1        5      0.0     -4.3241335498930429E+00  2.0495017899359596E+00  2.2598595612421107E+01
128      1        5      0.0     -1.0994802913507975E+01  7.0619594546458915E+00  2.1950171515449970E+01
129      1        5      0.0     -3.7259307673818811E+00  6.9980625954243552E+00  1.8792642495954770E+01
130      1        5      0.0     -7.1629990228142217E+00  1.9856059505029700E+00  1.7656328689538238E+01
131      1        5      0.0     -9.3780019770068019E+00  3.0268524911075989E+00  2.1706225883433881E+01
132      1        5      0.0     -5.9409354554463230E+00  8.0393073513518942E+00  2.2842539733279409E+01
133      1        1      0.0     -3.6617318298709239E-01  1.0551502325481062E+01  3.5507661606091889E+00
134      1        1      0.0      7.1972704182751546E+00  1.5563958761320986E+01  4.9902348242582789E-01
135      1        1      0.0      4.9822613502850688E+00  1.9523239299203127E+01  4.5489241901761117E+00
136      1        1      0.0     -2.5811708082778733E+00  1.4510781903892228E+01  7.6006611255666847E+00
137      1        2      0.0     -1.3528466029270576E+00  1.8917683157513139E+01  2.9765963745739530E+00
138      1        2      0.0      8.1839475267250972E+00  1.3905225945597541E+01  1.0731934108511441E+00
139      1        2      0.0      5.9689443169675540E+00  1.1157059558233836E+01  5.1230889984447110E+00
140      1        2      0.0     -3.5678498044811962E+00  1.6169515479491558E+01  7.0264948387052426E+00
141      1        2      0.0      6.3881092302606195E+00  1.8609842411518986E+01  3.2666829617972382E+00
142      1        2      0.0      4.4299224459466408E-01  1.3597386724452759E+01  7.8310764883322248E-01
143      1        2      0.0     -1.7720120653503131E+00  1.1464899436061241E+01  4.8330027010602050E+00
144      1        2      0.0      4.1731060792152155E+00  1.6477353889495454E+01  7.3165806703386114E+00
145      1        2      0.0      7.1553505862051328E+00  1.7097298795001585E+01  1.8330024598227943E+00
146      1        2      0.0     -3.2424893411525546E-01  1.2084840333274574E+01  2.2167841475757903E+00
147      1        2      0.0     -2.5392516005693500E+00  1.2977442011070661E+01  6.2666829354292997E+00
148      1        2      0.0      4.9403454328931504E+00  1.7989897954529816E+01  5.8829010149879251E+00
149      1        3      0.0      1.0131142749373323E+00  1.0733133009871763E+01  5.0292886604292972E+00
150      1        3      0.0      1.3879821002154553E+00  1.5745589787221011E+01  7.1202922515423630E+00
151      1        3      0.0      3.6029849060644881E+00  1.9341607963109794E+01  3.0703942573537928E+00
152      1        3      0.0      3.2281184571124135E+00  1.4329151115653749E+01  9.7939000856195602E-01
153      1        3      0.0      3.1721155819610276E+00  1.0352988725059971E+01  5.5489913876140822E+00
154      1        3      0.0     -7.7101977972149904E-01  1.5365446827942836E+01  6.6005897197168375E+00
155      1        3      0.0      1.4439837614829516E+00  1.9721753761993860E+01  2.5506933457128018E+00
156      1        3      0.0      5.3871183661280124E+00  1.4709297068818383E+01  1.4990937245390046E+00
157      1        4      0.0     -9.2285760509350434E-01  1.7997677728644327E+01  2.1126763567444038E+00
158      1        4      0.0      7.7539587682234412E+00  1.2985219012413346E+01  1.9371116693600798E+00
159      1        4      0.0      5.5389565578561744E+00  1.2077064488556708E+01  5.9870095907750747E+00
160      1        4      0.0     -3.1378618772941951E+00  1.7089520727031413E+01  6.1625746822081542E+00
161      1        4      0.0      6.0991525127403872E+00  1.7515428596947633E+01  2.5698322835405563E+00
162      1        4      0.0      7.3194922867056711E-01  1.2502971748538901E+01  1.4799560750765659E+00
163      1        4      0.0     -1.4830539364452806E+00  1.2559312995464229E+01  5.5298526586987009E+00
164      1        4      0.0      3.8841478425021356E+00  1.7571767534669636E+01  6.6197304829648234E+00
165      1        4      0.0      2.1886390243639808E+00  1.0323400385873121E+01  4.7620254329086951E+00
166      1        4      0.0      2.1245615663944645E-01  1.5335857892526219E+01  7.3875550580814267E+00
167      1        4      0.0      2.4274592218062963E+00  1.9751341055300841E+01  3.3376563337592846E+00
168      1        4      0.0      4.4036430165843035E+00  1.4738884643331723E+01  7.1212841723253850E-01
169      1        5      0.0      8.0217863628746125E-02  1.8000327825647393E+01  1.7006827015749959E+00
170      1        5      0.0      6.7508830552175088E+00  1.2987865932232847E+01  2.3491055206820404E+00
171      1        5      0.0      4.5358821829069589E+00  1.2074415577735957E+01  6.3990040012211056E+00
172      1        5      0.0     -2.1347871807079746E+00  1.7086873242445890E+01  5.7505799042499710E+00
173      1        5      0.0      5.1340849654181202E+00  1.7022976383224353E+01  2.5930508847547706E+00
174      1        5      0.0      1.6970167099857785E+00  1.2010519738302969E+01  1.4567370783382403E+00
175      1        5      0.0     -5.1798624420679984E-01  1.3051766278907598E+01  5.5066342722338808E+00
176      1        5      0.0      2.9190802773536779E+00  1.8064221139151893E+01  6.6429481220794093E+00
177      1        1      0.0     -4.7961810493870924E+00  1.0551502325481062E+01  1.1650561966209187E+01
178      1        1      0.0      2.7672625518751550E+00  1.5563958761320986E+01  8.5988192880258261E+00
179      1        1      0.0      5.5225348388506790E-01  1.9523239299203127E+01  1.2648719995776112E+01
180      1        1      0.0     -7.0111786746778746E+00  1.4510781903892228E+01  1.5700456931166686E+01
181      1        2      0.0     -5.7828544693270585E+00  1.8917683157513139E+01  1.1076392180173954E+01
182      1        2      0.0      3.7539396603250967E+00  1.3905225945597541E+01  9.1729892164511426E+00
183      1        2      0.0      1.5389364505675536E+00  1.1157059558233836E+01  1.3222884804044710E+01
184      1        2      0.0     -7.9978576708811966E+00  1.6169515479491558E+01  1.5126290644305243E+01
185      1        2      0.0      1.9581013638606195E+00  1.8609842411518986E+01  1.1366478767397238E+01
186      1        2      0.0     -3.9870156218053361E+00  1.3597386724452759E+01  8.8829034544332206E+00
187      1        2      0.0     -6.2020199317503133E+00  1.1464899436061241E+01  1.2932798506660204E+01
188      1        2      0.0     -2.5690178718478529E-01  1.6477353889495454E+01  1.5416376475938611E+01
189      1        2      0.0      2.7253427198051323E+00  1.7097298795001585E+01  9.9327982654227949E+00
190      1        2      0.0     -4.7542568005152566E+00  1.2084840333274574E+01  1.0316579953175790E+01
191      1        2      0.0     -6.9692594669693504E+00  1.2977442011070661E+01  1.4366478741029299E+01
192      1        2      0.0      5.1033756649315010E-01  1.7989897954529816E+01  1.3982696820587924E+01
193      1        3      0.0     -3.4168935914626686E+00  1.0733133009871763E+01  1.3129084466029298E+01
194      1        3      0.0     -3.0420257661845453E+00  1.5745589787221011E+01  1.5220088057142362E+01
195      1        3      0.0     -8.2702296033551215E-01  1.9341607963109794E+01  1.1170190062953791E+01
196      1        3      0.0     -1.2018894092875865E+00  1.4329151115653749E+01  9.0791858141619546E+00
197      1        3      0.0     -1.2578922844389724E+00  1.0352988725059971E+01  1.3648787193214080E+01
198      1        3      0.0     -5.2010276461214993E+00  1.5365446827942836E+01  1.4700385525316836E+01
199      1        3      0.0     -2.9860241049170488E+00  1.9721753761993860E+01  1.0650489151312801E+01
200      1        3      0.0      9.5711049972801265E-01  1.4709297068818383E+01  9.5988895301390027E+00
201      1        4      0.0     -5.3528654714935051E+00  1.7997677728644327E+01  1.0212472162344405E+01
202      1        4      0.0      3.3239509018234412E+00  1.2985219012413346E+01  1.0036907474960080E+01
203      1        4      0.0      1.1089486914561737E+00  1.2077064488556708E+01  1.4086805396375075E+01
204      1        4      0.0     -7.5678697436941960E+00  1.7089520727031413E+01  1.4262370487808154E+01
205      1        4      0.0      1.6691446463403867E+00  1.7515428596947633E+01  1.0669628089140557E+01
206      1        4      0.0     -3.6980586377294329E+00  1.2502971748538901E+01  9.5797518806765645E+00
207      1        4      0.0     -5.9130618028452808E+00  1.2559312995464229E+01  1.3629648464298700E+01
208      1        4      0.0     -5.4586002389786470E-01  1.7571767534669636E+01  1.4719526288564822E+01
209      1        4      0.0     -2.2413688420360192E+00  1.0323400385873121E+01  1.2861821238508693E+01
210      1        4      0.0     -4.2175517097605537E+00  1.5335857892526219E+01  1.5487350863681426E+01
211      1        4      0.0     -2.0025486445937046E+00  1.9751341055300841E+01  1.1437452139359284E+01
212      1        4      0.0     -2.6364849815697252E-02  1.4738884643331723E+01  8.8119242228325376E+00
213      1        5      0.0     -4.3497900027712539E+00  1.8000327825647393E+01  9.8004785071749954E+00
214      1        5      0.0      2.3208751888175083E+00  1.2987865932232847E+01  1.0448901326282039E+01
215      1        5      0.0      1.0587431650695828E-01  1.2074415577735957E+01  1.4498799806821106E+01
216      1        5      0.0     -6.5647950471079755E+00  1.7086873242445890E+01  1.3850375709849972E+01
217      1        5      0.0      7.0407709901811932E-01  1.7022976383224353E+01  1.0692846690354770E+01
218      1        5      0.0     -2.7329911564142222E+00  1.2010519738302969E+01  9.5565328839382406E+00
219      1        5      0.0     -4.9479941106068006E+00  1.3051766278907598E+01  1.3606430077833879E+01
220      1        5      0.0     -1.5109275890463225E+00  1.8064221139151893E+01  1.4742743927679410E+01
221      1        1      0.0     -9.2261889157870947E+00  1.0551502325481062E+01  1.9750357771809188E+01
222      1        1      0.0     -1.6627453145248456E+00  1.5563958761320986E+01  1.6698615093625826E+01
223      1        1      0.0     -3.8777543825149325E+00  1.9523239299203127E+01  2.0748515801376112E+01
224      1        1      0.0     -1.1441186541077874E+01  1.4510781903892228E+01  2.3800252736766684E+01
225      1        2      0.0     -1.0212862335727060E+01  1.8917683157513139E+01  1.9176187985773954E+01
226      1        2      0.0     -6.7606820607490381E-01  1.3905225945597541E+01  1.7272785022051142E+01
227      1        2      0.0     -2.8910714158324469E+00  1.1157059558233836E+01  2.1322680609644710E+01
228      1        2      0.0     -1.2427865537281196E+01  1.6169515479491558E+01  2.3226086449905239E+01
229      1        2      0.0     -2.4719065025393809E+00  1.8609842411518986E+01  1.9466274572997236E+01
230      1        2      0.0     -8.4170234882053361E+00  1.3597386724452759E+01  1.6982699260033222E+01
231      1        2      0.0     -1.0632027798150313E+01  1.1464899436061241E+01  2.1032594312260205E+01
232      1        2      0.0     -4.6869096535847854E+00  1.6477353889495454E+01  2.3516172281538612E+01
233      1        2      0.0     -1.7046651465948681E+00  1.7097298795001585E+01  1.8032594071022793E+01
234      1        2      0.0     -9.1842646669152561E+00  1.2084840333274574E+01  1.8416375758775789E+01
235      1        2      0.0     -1.1399267333369350E+01  1.2977442011070661E+01  2.2466274546629300E+01
236      1        2      0.0     -3.9196702999068505E+00  1.7989897954529816E+01  2.2082492626187925E+01
237      1        3      0.0     -7.8469014578626695E+00  1.0733133009871763E+01  2.1228880271629297E+01
238      1        3      0.0     -7.4720336325845453E+00  1.5745589787221011E+01  2.3319883862742362E+01
239      1        3      0.0     -5.2570308267355124E+00  1.9341607963109794E+01  1.9269985868553793E+01
240      1        3      0.0     -5.6318972756875869E+00  1.4329151115653749E+01  1.7178981619761956E+01
241      1        3      0.0     -5.6879001508389724E+00  1.0352988725059971E+01  2.1748582998814079E+01
242      1        3      0.0     -9.6310355125214997E+00  1.5365446827942836E+01  2.2800181330916836E+01
243      1        3      0.0     -7.4160319713170484E+00  1.9721753761993860E+01  1.8750284956912800E+01
244      1        3      0.0     -3.4728973666719880E+00  1.4709297068818383E+01  1.7698685335739004E+01
245      1        4      0.0     -9.7828733378935055E+00  1.7997677728644327E+01  1.8312267967944404E+01
246      1        4      0.0     -1.1060569645765592E+00  1.2985219012413346E+01  1.8136703280560077E+01
247      1        4      0.0     -3.3210591749438265E+00  1.2077064488556708E+01  2.2186601201975073E+01
248      1        4      0.0     -1.1997877610094196E+01  1.7089520727031413E+01  2.2362166293408155E+01
249      1        4      0.0     -2.7608632200596137E+00  1.7515428596947633E+01  1.8769423894740555E+01
250      1        4      0.0     -8.1280665041294338E+00  1.2502971748538901E+01  1.7679547686276564E+01
251      1        4      0.0     -1.0343069669245281E+01  1.2559312995464229E+01  2.1729444269898700E+01
252      1        4      0.0     -4.9758678902978648E+00  1.7571767534669636E+01  2.2819322094164821E+01
253      1        4      0.0     -6.6713767084360196E+00  1.0323400385873121E+01  2.0961617044108692E+01
254      1        4      0.0     -8.6475595761605550E+00  1.5335857892526219E+01  2.3587146669281424E+01
255      1        4      0.0     -6.4325565109937051E+00  1.9751341055300841E+01  1.9537247944959283E+01
256      1        4      0.0     -4.4563727162156983E+00  1.4738884643331723E+01  1.6911720028432541E+01
257      1        5      0.0     -8.7797978691712544E+00  1.8000327825647393E+01  1.7900274312774993E+01
258      1        5      0.0     -2.1091326775824930E+00  1.2987865932232847E+01  1.8548697131882040E+01
259      1        5      0.0     -4.3241335498930429E+00  1.2074415577735957E+01  2.2598595612421107E+01
260      1        5      0.0     -1.0994802913507975E+01  1.7086873242445890E+01  2.1950171515449970E+01
261      1        5      0.0     -3.7259307673818811E+00  1.7022976383224353E+01  1.8792642495954770E+01
262      1        5      0.0     -7.1629990228142217E+00  1.2010519738302969E+01  1.7656328689538238E+01
263      1        5      0.0     -9.3780019770068019E+00  1.3051766278907598E+01  2.1706225883433881E+01
264      1        5      0.0     -5.9409354554463230E+00  1.8064221139151893E+01  2.2842539733279409E+01
265      1        1      0.0     -3.6617318298709239E-01  2.0576416113281059E+01  3.5507661606091889E+00
266      1        1      0.0      7.1972704182751546E+00  2.5588872549120982E+01  4.9902348242582789E-01
267      1        1      0.0      4.9822613502850688E+00  2.9548153087003126E+01  4.5489241901761117E+00
268      1        1      0.0     -2.5811708082778733E+00  2.4535695691692226E+01  7.6006611255666847E+00
269      1        2      0.0     -1.3528466029270576E+00  2.8942596945313138E+01  2.9765963745739530E+00
270      1        2      0.0      8.1839475267250972E+00  2.3930139733397539E+01  1.0731934108511441E+00
271      1        2      0.0      5.9689443169675540E+00  2.1181973346033839E+01  5.1230889984447110E+00
272      1        2      0.0     -3.5678498044811962E+00  2.6194429267291557E+01  7.0264948387052426E+00
273      1        2      0.0      6.3881092302606195E+00  2.8634756199318989E+01  3.2666829617972382E+00
274      1        2      0.0      4.4299224459466408E-01  2.3622300512252757E+01  7.8310764883322248E-01
275      1        2      0.0     -1.7720120653503131E+00  2.1489813223861240E+01  4.8330027010602050E+00
276      1        2      0.0      4.1731060792152155E+00  2.6502267677295453E+01  7.3165806703386114E+00
277      1        2      0.0      7.1553505862051328E+00  2.7122212582801584E+01  1.8330024598227943E+00
278      1        2      0.0     -3.2424893411525546E-01  2.2109754121074573E+01  2.2167841475757903E+00
279      1        2      0.0     -2.5392516005693500E+00  2.3002355798870660E+01  6.2666829354292997E+00
280      1        2      0.0      4.9403454328931504E+00  2.8014811742329815E+01  5.8829010149879251E+00
281      1        3      0.0      1.0131142749373323E+00  2.0758046797671764E+01  5.0292886604292972E+00
282      1        3      0.0      1.3879821002154553E+00  2.5770503575021010E+01  7.1202922515423630E+00
283      1        3      0.0      3.6029849060644881E+00  2.9366521750909794E+01  3.0703942573537928E+00
284      1        3      0.0      3.2281184571124135E+00  2.4354064903453747E+01  9.7939000856195602E-01
285      1        3      0.0      3.1721155819610276E+00  2.0377902512859972E+01  5.5489913876140822E+00
286      1        3      0.0     -7.7101977972149904E-01  2.5390360615742836E+01  6.6005897197168375E+00
287      1        3      0.0      1.4439837614829516E+00  2.9746667549793859E+01  2.5506933457128018E+00
288      1        3      0.0      5.3871183661280124E+00  2.4734210856618386E+01  1.4990937245390046E+00
289      1        4      0.0     -9.2285760509350434E-01  2.8022591516444326E+01  2.1126763567444038E+00
290      1        4      0.0      7.7539587682234412E+00  2.3010132800213345E+01  1.9371116693600798E+00
291      1        4      0.0      5.5389565578561744E+00  2.2101978276356711E+01  5.9870095907750747E+00
292      1        4      0.0     -3.1378618772941951E+00  2.7114434514831412E+01  6.1625746822081542E+00
293      1        4      0.0      6.0991525127403872E+00  2.7540342384747628E+01  2.5698322835405563E+00
294      1        4      0.0      7.3194922867056711E-01  2.2527885536338900E+01  1.4799560750765659E+00
295      1        4      0.0     -1.4830539364452806E+00  2.2584226783264228E+01  5.5298526586987009E+00
296      1        4      0.0      3.8841478425021356E+00  2.7596681322469635E+01  6.6197304829648234E+00
297      1        4      0.0      2.1886390243639808E+00  2.0348314173673124E+01  4.7620254329086951E+00
298      1        4      0.0      2.1245615663944645E-01  2.5360771680326216E+01  7.3875550580814267E+00
299      1        4      0.0      2.4274592218062963E+00  2.9776254843100840E+01  3.3376563337592846E+00
300      1        4      0.0      4.4036430165843035E+00  2.4763798431131722E+01  7.1212841723253850E-01
301      1        5      0.0      8.0217863628746125E-02  2.8025241613447392E+01  1.7006827015749959E+00
302      1        5      0.0      6.7508830552175088E+00  2.3012779720032846E+01  2.3491055206820404E+00
303      1        5      0.0      4.5358821829069589E+00  2.2099329365535958E+01  6.3990040012211056E+00
304      1        5      0.0     -2.1347871807079746E+00  2.7111787030245889E+01  5.7505799042499710E+00
305      1        5      0.0      5.1340849654181202E+00  2.7047890171024353E+01  2.5930508847547706E+00
306      1        5      0.0      1.6970167099857785E+00  2.2035433526102967E+01  1.4567370783382403E+00
307      1        5      0.0     -5.1798624420679984E-01  2.3076680066707599E+01  5.5066342722338808E+00
308      1        5      0.0      2.9190802773536779E+00  2.8089134926951889E+01  6.6429481220794093E+00
309      1        1      0.0     -4.7961810493870924E+00  2.0576416113281059E+01  1.1650561966209187E+01
310      1        1      0.0      2.7672625518751550E+00  2.5588872549120982E+01  8.5988192880258261E+00
311      1        1      0.0      5.5225348388506790E-01  2.9548153087003126E+01  1.2648719995776112E+01
312      1        1      0.0     -7.0111786746778746E+00  2.4535695691692226E+01  1.5700456931166686E+01
313      1        2      0.0     -5.7828544693270585E+00  2.8942596945313138E+01  1.1076392180173954E+01
314      1        2      0.0      3.7539396603250967E+00  2.3930139733397539E+01  9.1729892164511426E+00
315      1        2      0.0      1.5389364505675536E+00  2.1181973346033839E+01  1.3222884804044710E+01
316      1        2      0.0     -7.9978576708811966E+00  2.6194429267291557E+01  1.5126290644305243E+01
317      1        2      0.0      1.9581013638606195E+00  2.8634756199318989E+01  1.1366478767397238E+01
318      1        2      0.0     -3.9870156218053361E+00  2.3622300512252757E+01  8.8829034544332206E+00
319      1        2      0.0     -6.2020199317503133E+00  2.1489813223861240E+01  1.2932798506660204E+01
320      1        2      0.0     -2.5690178718478529E-01  2.6502267677295453E+01  1.5416376475938611E+01
321      1        2      0.0      2.7253427198051323E+00  2.7122212582801584E+01  9.9327982654227949E+00
322      1        2      0.0     -4.7542568005152566E+00  2.2109754121074573E+01  1.0316579953175790E+01
323      1        2      0.0     -6.9692594669693504E+00  2.3002355798870660E+01  1.4366478741029299E+01
324      1        2      0.0      5.1033756649315010E-01  2.8014811742329815E+01  1.3982696820587924E+01
325      1        3      0.0     -3.4168935914626686E+00  2.0758046797671764E+01  1.3129084466029298E+01
326      1        3      0.0     -3.0420257661845453E+00  2.5770503575021010E+01  1.5220088057142362E+01
327      1        3      0.0     -8.2702296033551215E-01  2.9366521750909794E+01  1.1170190062953791E+01
328      1        3      0.0     -1.2018894092875865E+00  2.4354064903453747E+01  9.0791858141619546E+00
329      1        3      0.0     -1.2578922844389724E+00  2.0377902512859972E+01  1.3648787193214080E+01
330      1        3      0.0     -5.2010276461214993E+00  2.5390360615742836E+01  1.4700385525316836E+01
331      1        3      0.0     -2.9860241049170488E+00  2.9746667549793859E+01  1.0650489151312801E+01
332      1        3      0.0      9.5711049972801265E-01  2.4734210856618386E+01  9.5988895301390027E+00
333      1        4      0.0     -5.3528654714935051E+00  2.8022591516444326E+01  1.0212472162344405E+01
334      1        4      0.0      3.3239509018234412E+00  2.3010132800213345E+01  1.0036907474960080E+01
335      1        4      0.0      1.1089486914561737E+00  2.2101978276356711E+01  1.4086805396375075E+01
336      1        4      0.0     -7.5678697436941960E+00  2.7114434514831412E+01  1.4262370487808154E+01
337      1        4      0.0      1.6691446463403867E+00  2.7540342384747628E+01  1.0669628089140557E+01
338      1        4      0.0     -3.6980586377294329E+00  2.2527885536338900E+01  9.5797518806765645E+00
339      1        4      0.0     -5.9130618028452808E+00  2.2584226783264228E+01  1.3629648464298700E+01
340      1        4      0.0     -5.4586002389786470E-01  2.7596681322469635E+01  1.4719526288564822E+01
341      1        4      0.0     -2.2413688420360192E+00  2.0348314173673124E+01  1.2861821238508693E+01
342      1        4      0.0     -4.2175517097605537E+00  2.5360771680326216E+01  1.5487350863681426E+01
343      1        4      0.0     -2.0025486445937046E+00  2.9776254843100840E+01  1.1437452139359284E+01
344      1        4      0.0     -2.6364849815697252E-02  2.4763798431131722E+01  8.8119242228325376E+00
345      1        5      0.0     -4.3497900027712539E+00  2.8025241613447392E+01  9.8004785071749954E+00
346      1        5      0.0      2.3208751888175083E+00  2.3012779720032846E+01  1.0448901326282039E+01
347      1        5      0.0      1.0587431650695828E-01  2.2099329365535958E+01  1.4498799806821106E+01
348      1        5      0.0     -6.5647950471079755E+00  2.7111787030245889E+01  1.3850375709849972E+01
349      1        5      0.0      7.0407709901811932E-01  2.7047890171024353E+01  1.0692846690354770E+01
350      1        5      0.0     -2.7329911564142222E+00  2.2035433526102967E+01  9.5565328839382406E+00
351      1        5      0.0     -4.9479941106068006E+00  2.3076680066707599E+01  1.3606430077833879E+01
352      1        5      0.0     -1.5109275890463225E+00  2.8089134926951889E+01  1.4742743927679410E+01
353      1        1      0.0     -9.2261889157870947E+00  2.0576416113281059E+01  1.9750357771809188E+01
354      1        1      0.0     -1.6627453145248456E+00  2.5588872549120982E+01  1.6698615093625826E+01
355      1        1      0.0     -3.8777543825149325E+00  2.9548153087003126E+01  2.0748515801376112E+01
356      1        1      0.0     -1.1441186541077874E+01  2.4535695691692226E+01  2.3800252736766684E+01
357      1        2      0.0     -1.0212862335727060E+01  2.8942596945313138E+01  1.9176187985773954E+01
358      1        2      0.0     -6.7606820607490381E-01  2.3930139733397539E+01  1.7272785022051142E+01
359      1        2      0.0     -2.8910714158324469E+00  2.1181973346033839E+01  2.1322680609644710E+01
360      1        2      0.0     -1.2427865537281196E+01  2.6194429267291557E+01  2.3226086449905239E+01
361      1        2      0.0     -2.4719065025393809E+00  2.8634756199318989E+01  1.9466274572997236E+01
362      1        2      0.0     -8.4170234882053361E+00  2.3622300512252757E+01  1.6982699260033222E+01
363      1        2      0.0     -1.0632027798150313E+01  2.1489813223861240E+01  2.1032594312260205E+01
364      1        2      0.0     -4.6869096535847854E+00  2.6502267677295453E+01  2.3516172281538612E+01
365      1        2      0.0     -1.7046651465948681E+00  2.7122212582801584E+01  1.8032594071022793E+01
366      1        2      0.0     -9.1842646669152561E+00  2.2109754121074573E+01  1.8416375758775789E+01
367      1        2      0.0     -1.1399267333369350E+01  2.3002355798870660E+01  2.2466274546629300E+01
368      1        2      0.0     -3.9196702999068505E+00  2.8014811742329815E+01  2.2082492626187925E+01
369      1        3      0.0     -7.8469014578626695E+00  2.0758046797671764E+01  2.1228880271629297E+01
370      1        3      0.0     -7.4720336325845453E+00  2.5770503575021010E+01  2.3319883862742362E+01
371      1        3      0.0     -5.2570308267355124E+00  2.9366521750909794E+01  1.9269985868553793E+01
372      1        3      0.0     -5.6318972756875869E+00  2.4354064903453747E+01  1.7178981619761956E+01
373      1        3      0.0     -5.6879001508389724E+00  2.0377902512859972E+01  2.1748582998814079E+01
374      1        3      0.0     -9.6310355125214997E+00  2.5390360615742836E+01  2.2800181330916836E+01
375      1        3      0.0     -7.4160319713170484E+00  2.9746667549793859E+01  1.8750284956912800E+01
376      1        3      0.0     -3.4728973666719880E+00  2.4734210856618386E+01  1.7698685335739004E+01
377      1        4      0.0     -9.7828733378935055E+00  2.8022591516444326E+01  1.8312267967944404E+01
378      1        4      0.0     -1.1060569645765592E+00  2.3010132800213345E+01  1.8136703280560077E+01
379      1        4      0.0     -3.3210591749438265E+00  2.2101978276356711E+01  2.2186601201975073E+01
380      1        4      0.0     -1.1997877610094196E+01  2.7114434514831412E+01  2.2362166293408155E+01
381      1        4      0.0     -2.7608632200596137E+00  2.7540342384747628E+01  1.8769423894740555E+01
382      1        4      0.0     -8.1280665041294338E+00  2.2527885536338900E+01  1.7679547686276564E+01
383      1        4      0.0     -1.0343069669245281E+01  2.2584226783264228E+01  2.1729444269898700E+01
384      1        4      0.0     -4.9758678902978648E+00  2.7596681322469635E+01  2.2819322094164821E+01
385      1        4      0.0     -6.6713767084360196E+00  2.0348314173673124E+01  2.0961617044108692E+01
386      1        4      0.0     -8.6475595761605550E+00  2.5360771680326216E+01  2.3587146669281424E+01
387      1        4      0.0     -6.4325565109937051E+00  2.9776254843100840E+01  1.9537247944959283E+01
388      1        4      0.0     -4.4563727162156983E+00  2.4763798431131722E+01  1.6911720028432541E+01
389      1        5      0.0     -8.7797978691712544E+00  2.8025241613447392E+01  1.7900274312774993E+01
390      1        5      0.0     -2.1091326775824930E+00  2.3012779720032846E+01  1.8548697131882040E+01
391      1        5      0.0     -4.3241335498930429E+00  2.2099329365535958E+01  2.2598595612421107E+01
392      1        5      0.0     -1.0994802913507975E+01  2.7111787030245889E+01  2.1950171515449970E+01
393      1        5      0.0     -3.7259307673818811E+00  2.7047890171024353E+01  1.8792642495954770E+01
394      1        5      0.0     -7.1629990228142217E+00  2.2035433526102967E+01  1.7656328689538238E+01
395      1        5      0.0     -9.3780019770068019E+00  2.3076680066707599E+01  2.1706225883433881E+01
396      1        5      0.0     -5.9409354554463230E+00  2.8089134926951889E+01  2.2842539733279409E+01
397      1        1      0.0      8.6798721203129059E+00  5.2658853768106151E-01  3.5507661606091889E+00
398      1        1      0.0      1.6243315721575154E+01  5.5390449735209870E+00  4.9902348242582789E-01
399      1        1      0.0      1.4028306653585068E+01  9.4983255114031255E+00  4.5489241901761117E+00
400      1        1      0.0      6.4648744950221264E+00  4.4858681160922274E+00  7.6006611255666847E+00
401      1        2      0.0      7.6931987003729407E+00  8.8927693697131396E+00  2.9765963745739530E+00
402      1        2      0.0      1.7229992830025097E+01  3.8803121577975408E+00  1.0731934108511441E+00
403      1        2      0.0      1.5014989620267555E+01  1.1321457704338378E+00  5.1230889984447110E+00
404      1        2      0.0      5.4781954988188044E+00  6.1446016916915589E+00  7.0264948387052426E+00
405      1        2      0.0      1.5434154533560617E+01  8.5849286237189872E+00  3.2666829617972382E+00
406      1        2      0.0      9.4890375478946645E+00  3.5724729366527601E+00  7.8310764883322248E-01
407      1        2      0.0      7.2740332379496850E+00  1.4399856482612419E+00  4.8330027010602050E+00
408      1        2      0.0      1.3219151382515214E+01  6.4524401016954549E+00  7.3165806703386114E+00
409      1        2      0.0      1.6201395889505132E+01  7.0723850072015866E+00  1.8330024598227943E+00
410      1        2      0.0      8.7217963691847444E+00  2.0599265454745748E+00  2.2167841475757903E+00
411      1        2      0.0      6.5067937027306488E+00  2.9525282232706602E+00  6.2666829354292997E+00
412      1        2      0.0      1.3986390736193149E+01  7.9649841667298160E+00  5.8829010149879251E+00
413      1        3      0.0      1.0059159578237331E+01  7.0821922207176380E-01  5.0292886604292972E+00
414      1        3      0.0      1.0434027403515454E+01  5.7206759994210126E+00  7.1202922515423630E+00
415      1        3      0.0      1.2649030209364486E+01  9.3166941753097934E+00  3.0703942573537928E+00
416      1        3      0.0      1.2274163760412412E+01  4.3042373278537500E+00  9.7939000856195602E-01
417      1        3      0.0      1.2218160885261026E+01  3.2807493725997300E-01  5.5489913876140822E+00
418      1        3      0.0      8.2750255235785009E+00  5.3405330401428373E+00  6.6005897197168375E+00
419      1        3      0.0      1.0490029064782952E+01  9.6968399741938587E+00  2.5506933457128018E+00
420      1        3      0.0      1.4433163669428012E+01  4.6843832810183850E+00  1.4990937245390046E+00
421      1        4      0.0      8.1231876982064950E+00  7.9727639408443265E+00  2.1126763567444038E+00
422      1        4      0.0      1.6800004071523443E+01  2.9603052246133466E+00  1.9371116693600798E+00
423      1        4      0.0      1.4585001861156174E+01  2.0521507007567097E+00  5.9870095907750747E+00
424      1        4      0.0      5.9081834260058050E+00  7.0646069392314121E+00  6.1625746822081542E+00
425      1        4      0.0      1.5145197816040387E+01  7.4905148091476326E+00  2.5698322835405563E+00
426      1        4      0.0      9.7779945319705668E+00  2.4780579607389006E+00  1.4799560750765659E+00
427      1        4      0.0      7.5629913668547202E+00  2.5343992076642299E+00  5.5298526586987009E+00
428      1        4      0.0      1.2930193145802134E+01  7.5468537468696377E+00  6.6197304829648234E+00
429      1        4      0.0      1.1234684327663983E+01  2.9848659807312228E-01  4.7620254329086951E+00
430      1        4      0.0      9.2585014599394455E+00  5.3109441047262207E+00  7.3875550580814267E+00
431      1        4      0.0      1.1473504525106295E+01  9.7264272675008403E+00  3.3376563337592846E+00
432      1        4      0.0      1.3449688319884302E+01  4.7139708555317235E+00  7.1212841723253850E-01
433      1        5      0.0      9.1262631669287462E+00  7.9754140378473934E+00  1.7006827015749959E+00
434      1        5      0.0      1.5796928358517510E+01  2.9629521444328488E+00  2.3491055206820404E+00
435      1        5      0.0      1.3581927486206958E+01  2.0495017899359596E+00  6.3990040012211056E+00
436      1        5      0.0      6.9112581225920255E+00  7.0619594546458915E+00  5.7505799042499710E+00
437      1        5      0.0      1.4180130268718118E+01  6.9980625954243552E+00  2.5930508847547706E+00
438      1        5      0.0      1.0743062013285778E+01  1.9856059505029700E+00  1.4567370783382403E+00
439      1        5      0.0      8.5280590590932022E+00  3.0268524911075989E+00  5.5066342722338808E+00
440      1        5      0.0      1.1965125580653677E+01  8.0393073513518942E+00  6.6429481220794093E+00
441      1        1      0.0      4.2498642539129063E+00  5.2658853768106151E-01  1.1650561966209187E+01
442      1        1      0.0      1.1813307855175154E+01  5.5390449735209870E+00  8.5988192880258261E+00
443      1        1      0.0      9.5982987871850671E+00  9.4983255114031255E+00  1.2648719995776112E+01
444      1        1      0.0      2.0348666286221251E+00  4.4858681160922274E+00  1.5700456931166686E+01
445      1        2      0.0      3.2631908339729399E+00  8.8927693697131396E+00  1.1076392180173954E+01
446      1        2      0.0      1.2799984963625098E+01  3.8803121577975408E+00  9.1729892164511426E+00
447      1        2      0.0      1.0584981753867556E+01  1.1321457704338378E+00  1.3222884804044710E+01
448      1        2      0.0      1.0481876324188042E+00  6.1446016916915589E+00  1.5126290644305243E+01
449      1        2      0.0      1.1004146667160617E+01  8.5849286237189872E+00  1.1366478767397238E+01
450      1        2      0.0      5.0590296814946649E+00  3.5724729366527601E+00  8.8829034544332206E+00
451      1        2      0.0      2.8440253715496855E+00  1.4399856482612419E+00  1.2932798506660204E+01
452      1        2      0.0      8.7891435161152138E+00  6.4524401016954549E+00  1.5416376475938611E+01
453      1        2      0.0      1.1771388023105132E+01  7.0723850072015866E+00  9.9327982654227949E+00
454      1        2      0.0      4.2917885027847440E+00  2.0599265454745748E+00  1.0316579953175790E+01
455      1        2      0.0      2.0767858363306488E+00  2.9525282232706602E+00  1.4366478741029299E+01
456      1        2      0.0      9.5563828697931505E+00  7.9649841667298160E+00  1.3982696820587924E+01
457      1        3      0.0      5.6291517118373307E+00  7.0821922207176380E-01  1.3129084466029298E+01
458      1        3      0.0      6.0040195371154548E+00  5.7206759994210126E+00  1.5220088057142362E+01
459      1        3      0.0      8.2190223429644860E+00  9.3166941753097934E+00  1.1170190062953791E+01
460      1        3      0.0      7.8441558940124123E+00  4.3042373278537500E+00  9.0791858141619546E+00
461      1        3      0.0      7.7881530188610268E+00  3.2807493725997300E-01  1.3648787193214080E+01
462      1        3      0.0      3.8450176571785009E+00  5.3405330401428373E+00  1.4700385525316836E+01
463      1        3      0.0      6.0600211983829508E+00  9.6968399741938587E+00  1.0650489151312801E+01
464      1        3      0.0      1.0003155803028012E+01  4.6843832810183850E+00  9.5988895301390027E+00
465      1        4      0.0      3.6931798318064946E+00  7.9727639408443265E+00  1.0212472162344405E+01
466      1        4      0.0      1.2369996205123442E+01  2.9603052246133466E+00  1.0036907474960080E+01
467      1        4      0.0      1.0154993994756174E+01  2.0521507007567097E+00  1.4086805396375075E+01
468      1        4      0.0      1.4781755596058042E+00  7.0646069392314121E+00  1.4262370487808154E+01
469      1        4      0.0      1.0715189949640385E+01  7.4905148091476326E+00  1.0669628089140557E+01
470      1        4      0.0      5.3479866655705663E+00  2.4780579607389006E+00  9.5797518806765645E+00
471      1        4      0.0      3.1329835004547193E+00  2.5343992076642299E+00  1.3629648464298700E+01
472      1        4      0.0      8.5001852794021335E+00  7.5468537468696377E+00  1.4719526288564822E+01
473      1        4      0.0      6.8046764612639823E+00  2.9848659807312228E-01  1.2861821238508693E+01
474      1        4      0.0      4.8284935935394451E+00  5.3109441047262207E+00  1.5487350863681426E+01
475      1        4      0.0      7.0434966587062942E+00  9.7264272675008403E+00  1.1437452139359284E+01
476      1        4      0.0      9.0196804534843018E+00  4.7139708555317235E+00  8.8119242228325376E+00
477      1        5      0.0      4.6962553005287457E+00  7.9754140378473934E+00  9.8004785071749954E+00
478      1        5      0.0      1.1366920492117510E+01  2.9629521444328488E+00  1.0448901326282039E+01
479      1        5      0.0      9.1519196198069572E+00  2.0495017899359596E+00  1.4498799806821106E+01
480      1        5      0.0      2.4812502561920247E+00  7.0619594546458915E+00  1.3850375709849972E+01
481      1        5      0.0      9.7501224023181177E+00  6.9980625954243552E+00  1.0692846690354770E+01
482      1        5      0.0      6.3130541468857775E+00  1.9856059505029700E+00  9.5565328839382406E+00
483      1        5      0.0      4.0980511926932008E+00  3.0268524911075989E+00  1.3606430077833879E+01
484      1        5      0.0      7.5351177142536763E+00  8.0393073513518942E+00  1.4742743927679410E+01
485      1        1      0.0     -1.8014361248709498E-01  5.2658853768106151E-01  1.9750357771809188E+01
486      1        1      0.0      7.3832999887751534E+00  5.5390449735209870E+00  1.6698615093625826E+01
487      1        1      0.0      5.1682909207850667E+00  9.4983255114031255E+00  2.0748515801376112E+01
488      1        1      0.0     -2.3951412377778754E+00  4.4858681160922274E+00  2.3800252736766684E+01
489      1        2      0.0     -1.1668170324270608E+00  8.8927693697131396E+00  1.9176187985773954E+01
490      1        2      0.0      8.3699770972250978E+00  3.8803121577975408E+00  1.7272785022051142E+01
491      1        2      0.0      6.1549738874675546E+00  1.1321457704338378E+00  2.1322680609644710E+01
492      1        2      0.0     -3.3818202339811951E+00  6.1446016916915589E+00  2.3226086449905239E+01
493      1        2      0.0      6.5741388007606165E+00  8.5849286237189872E+00  1.9466274572997236E+01
494      1        2      0.0      6.2902181509466415E-01  3.5724729366527601E+00  1.6982699260033222E+01
495      1        2      0.0     -1.5859824948503149E+00  1.4399856482612419E+00  2.1032594312260205E+01
496      1        2      0.0      4.3591356497152143E+00  6.4524401016954549E+00  2.3516172281538612E+01
497      1        2      0.0      7.3413801567051316E+00  7.0723850072015866E+00  1.8032594071022793E+01
498      1        2      0.0     -1.3821936361525669E-01  2.0599265454745748E+00  1.8416375758775789E+01
499      1        2      0.0     -2.3532220300693516E+00  2.9525282232706602E+00  2.2466274546629300E+01
500      1        2      0.0      5.1263750033931492E+00  7.9649841667298160E+00  2.2082492626187925E+01
501      1        3      0.0      1.1991438454373302E+00  7.0821922207176380E-01  2.1228880271629297E+01
502      1        3      0.0      1.5740116707154541E+00  5.7206759994210126E+00  2.3319883862742362E+01
503      1        3      0.0      3.7890144765644860E+00  9.3166941753097934E+00  1.9269985868553793E+01
504      1        3      0.0      3.4141480276124119E+00  4.3042373278537500E+00  1.7178981619761956E+01
505      1        3      0.0      3.3581451524610260E+00  3.2807493725997300E-01  2.1748582998814079E+01
506      1        3      0.0     -5.8499020922149969E-01  5.3405330401428373E+00  2.2800181330916836E+01
507      1        3      0.0      1.6300133319829513E+00  9.6968399741938587E+00  1.8750284956912800E+01
508      1        3      0.0      5.5731479366280112E+00  4.6843832810183850E+00  1.7698685335739004E+01
509      1        4      0.0     -7.3682803459350599E-01  7.9727639408443265E+00  1.8312267967944404E+01
510      1        4      0.0      7.9399883387234418E+00  2.9603052246133466E+00  1.8136703280560077E+01
511      1        4      0.0      5.7249861283561732E+00  2.0521507007567097E+00  2.2186601201975073E+01
512      1        4      0.0     -2.9518323067941963E+00  7.0646069392314121E+00  2.2362166293408155E+01
513      1        4      0.0      6.2851820832403851E+00  7.4905148091476326E+00  1.8769423894740555E+01
514      1        4      0.0      9.1797879917056591E-01  2.4780579607389006E+00  1.7679547686276564E+01
515      1        4      0.0     -1.2970243659452811E+00  2.5343992076642299E+00  2.1729444269898700E+01
516      1        4      0.0      4.0701774130021340E+00  7.5468537468696377E+00  2.2819322094164821E+01
517      1        4      0.0      2.3746685948639819E+00  2.9848659807312228E-01  2.0961617044108692E+01
518      1        4      0.0      3.9848572713944436E-01  5.3109441047262207E+00  2.3587146669281424E+01
519      1        4      0.0      2.6134887923062937E+00  9.7264272675008403E+00  1.9537247944959283E+01
520      1        4      0.0      4.5896725870843014E+00  4.7139708555317235E+00  1.6911720028432541E+01
521      1        5      0.0      2.6624743412874524E-01  7.9754140378473934E+00  1.7900274312774993E+01
522      1        5      0.0      6.9369126257175084E+00  2.9629521444328488E+00  1.8548697131882040E+01
523      1        5      0.0      4.7219117534069568E+00  2.0495017899359596E+00  2.2598595612421107E+01
524      1        5      0.0     -1.9487576102079756E+00  7.0619594546458915E+00  2.1950171515449970E+01
525      1        5      0.0      5.3201145359181181E+00  6.9980625954243552E+00  1.8792642495954770E+01
526      1        5      0.0      1.8830462804857779E+00  1.9856059505029700E+00  1.7656328689538238E+01
527      1        5      0.0     -3.3195667370680032E-01  3.0268524911075989E+00  2.1706225883433881E+01
528      1        5      0.0      3.1051098478536758E+00  8.0393073513518942E+00  2.2842539733279409E+01
529      1        1      0.0      8.6798721203129059E+00  1.0551502325481062E+01  3.5507661606091889E+00
530      1        1      0.0      1.6243315721575154E+01  1.5563958761320986E+01  4.9902348242582789E-01
531      1        1      0.0      1.4028306653585068E+01  1.9523239299203127E+01  4.5489241901761117E+00
532      1        1      0.0      6.4648744950221264E+00  1.4510781903892228E+01  7.6006611255666847E+00
533      1        2      0.0      7.6931987003729407E+00  1.8917683157513139E+01  2.9765963745739530E+00
534      1        2      0.0      1.7229992830025097E+01  1.3905225945597541E+01  1.0731934108511441E+00
535      1        2      0.0      1.5014989620267555E+01  1.1157059558233836E+01  5.1230889984447110E+00
536      1        2      0.0      5.4781954988188044E+00  1.6169515479491558E+01  7.0264948387052426E+00
537      1        2      0.0      1.5434154533560617E+01  1.8609842411518986E+01  3.2666829617972382E+00
538      1        2      0.0      9.4890375478946645E+00  1.3597386724452759E+01  7.8310764883322248E-01
539      1        2      0.0      7.2740332379496850E+00  1.1464899436061241E+01  4.8330027010602050E+00
540      1        2      0.0      1.3219151382515214E+01  1.6477353889495454E+01  7.3165806703386114E+00
541      1        2      0.0      1.6201395889505132E+01  1.7097298795001585E+01  1.8330024598227943E+00
542      1        2      0.0      8.7217963691847444E+00  1.2084840333274574E+01  2.2167841475757903E+00
543      1        2      0.0      6.5067937027306488E+00  1.2977442011070661E+01  6.2666829354292997E+00
544      1        2      0.0      1.3986390736193149E+01  1.7989897954529816E+01  5.8829010149879251E+00
545      1        3      0.0      1.0059159578237331E+01  1.0733133009871763E+01  5.0292886604292972E+00
546      1        3      0.0      1.0434027403515454E+01  1.5745589787221011E+01  7.1202922515423630E+00
547      1        3      0.0      1.2649030209364486E+01  1.9341607963109794E+01  3.0703942573537928E+00
548      1        3      0.0      1.2274163760412412E+01  1.4329151115653749E+01  9.7939000856195602E-01
549      1        3      0.0      1.2218160885261026E+01  1.0352988725059971E+01  5.5489913876140822E+00
550      1        3      0.0      8.2750255235785009E+00  1.5365446827942836E+01  6.6005897197168375E+00
551      1        3      0.0      1.0490029064782952E+01  1.9721753761993860E+01  2.5506933457128018E+00
552      1        3      0.0      1.4433163669428012E+01  1.4709297068818383E+01  1.4990937245390046E+00
553      1        4      0.0      8.1231876982064950E+00  1.7997677728644327E+01  2.1126763567444038E+00
554      1        4      0.0      1.6800004071523443E+01  1.2985219012413346E+01  1.9371116693600798E+00
555      1        4      0.0      1.4585001861156174E+01  1.2077064488556708E+01  5.9870095907750747E+00
556      1        4      0.0      5.9081834260058050E+00  1.7089520727031413E+01  6.1625746822081542E+00
557      1        4      0.0      1.5145197816040387E+01  1.7515428596947633E+01  2.5698322835405563E+00
558      1        4      0.0      9.7779945319705668E+00  1.2502971748538901E+01  1.4799560750765659E+00
559      1        4      0.0      7.5629913668547202E+00  1.2559312995464229E+01  5.5298526586987009E+00
560      1        4      0.0      1.2930193145802134E+01  1.7571767534669636E+01  6.6197304829648234E+00
561      1        4      0.0      1.1234684327663983E+01  1.0323400385873121E+01  4.7620254329086951E+00
562      1        4      0.0      9.2585014599394455E+00  1.5335857892526219E+01  7.3875550580814267E+00
563      1        4      0.0      1.1473504525106295E+01  1.9751341055300841E+01  3.3376563337592846E+00
564      1        4      0.0      1.3449688319884302E+01  1.4738884643331723E+01  7.1212841723253850E-01
565      1        5      0.0      9.1262631669287462E+00  1.8000327825647393E+01  1.7006827015749959E+00
566      1        5      0.0      1.5796928358517510E+01  1.2987865932232847E+01  2.3491055206820404E+00
567      1        5      0.0      1.3581927486206958E+01  1.2074415577735957E+01  6.3990040012211056E+00
568      1        5      0.0      6.9112581225920255E+00  1.7086873242445890E+01  5.7505799042499710E+00
569      1        5      0.0      1.4180130268718118E+01  1.7022976383224353E+01  2.5930508847547706E+00
570      1        5      0.0      1.0743062013285778E+01  1.2010519738302969E+01  1.4567370783382403E+00
571      1        5      0.0      8.5280590590932022E+00  1.3051766278907598E+01  5.5066342722338808E+00
572      1        5      0.0      1.1965125580653677E+01  1.8064221139151893E+01  6.6429481220794093E+00
573      1        1      0.0      4.2498642539129063E+00  1.0551502325481062E+01  1.1650561966209187E+01
574      1        1      0.0      1.1813307855175154E+01  1.5563958761320986E+01  8.5988192880258261E+00
575      1        1      0.0      9.5982987871850671E+00  1.9523239299203127E+01  1.2648719995776112E+01
576      1        1      0.0      2.0348666286221251E+00  1.4510781903892228E+01  1.5700456931166686E+01
577      1        2      0.0      3.2631908339729399E+00  1.8917683157513139E+01  1.1076392180173954E+01
578      1        2      0.0      1.2799984963625098E+01  1.3905225945597541E+01  9.1729892164511426E+00
579      1        2      0.0      1.0584981753867556E+01  1.1157059558233836E+01  1.3222884804044710E+01
580      1        2      0.0      1.0481876324188042E+00  1.6169515479491558E+01  1.5126290644305243E+01
581      1        2      0.0      1.1004146667160617E+01  1.8609842411518986E+01  1.1366478767397238E+01
582      1        2      0.0      5.0590296814946649E+00  1.3597386724452759E+01  8.8829034544332206E+00
583      1        2      0.0      2.8440253715496855E+00  1.1464899436061241E+01  1.2932798506660204E+01
584      1        2      0.0      8.7891435161152138E+00  1.6477353889495454E+01  1.5416376475938611E+01
585      1        2      0.0      1.1771388023105132E+01  1.7097298795001585E+01  9.9327982654227949E+00
586      1        2      0.0      4.2917885027847440E+00  1.2084840333274574E+01  1.0316579953175790E+01
587      1        2      0.0      2.0767858363306488E+00  1.2977442011070661E+01  1.4366478741029299E+01
588      1        2      0.0      9.5563828697931505E+00  1.7989897954529816E+01  1.3982696820587924E+01
589      1        3      0.0      5.6291517118373307E+00  1.0733133009871763E+01  1.3129084466029298E+01
590      1        3      0.0      6.0040195371154548E+00  1.5745589787221011E+01  1.5220088057142362E+01
591      1        3      0.0      8.2190223429644860E+00  1.9341607963109794E+01  1.1170190062953791E+01
592      1        3      0.0      7.8441558940124123E+00  1.4329151115653749E+01  9.0791858141619546E+00
593      1        3      0.0      7.7881530188610268E+00  1.0352988725059971E+01  1.3648787193214080E+01
594      1        3      0.0      3.8450176571785009E+00  1.5365446827942836E+01  1.4700385525316836E+01
595      1        3      0.0      6.0600211983829508E+00  1.9721753761993860E+01  1.0650489151312801E+01
596      1        3      0.0      1.0003155803028012E+01  1.4709297068818383E+01  9.5988895301390027E+00
597      1        4      0.0      3.6931798318064946E+00  1.7997677728644327E+01  1.0212472162344405E+01
598      1        4      0.0      1.2369996205123442E+01  1.2985219012413346E+01  1.0036907474960080E+01
599      1        4      0.0      1.0154993994756174E+01  1.2077064488556708E+01  1.4086805396375075E+01
600      1        4      0.0      1.4781755596058042E+00  1.7089520727031413E+01  1.4262370487808154E+01
601      1        4      0.0      1.0715189949640385E+01  1.7515428596947633E+01  1.0669628089140557E+01
602      1        4      0.0      5.3479866655705663E+00  1.2502971748538901E+01  9.5797518806765645E+00
603      1        4      0.0      3.1329835004547193E+00  1.2559312995464229E+01  1.3629648464298700E+01
604      1        4      0.0      8.5001852794021335E+00  1.7571767534669636E+01  1.4719526288564822E+01
605      1        4      0.0      6.8046764612639823E+00  1.0323400385873121E+01  1.2861821238508693E+01
606      1        4      0.0      4.8284935935394451E+00  1.5335857892526219E+01  1.5487350863681426E+01
607      1        4      0.0      7.0434966587062942E+00  1.9751341055300841E+01  1.1437452139359284E+01
608      1        4      0.0      9.0196804534843018E+00  1.4738884643331723E+01  8.8119242228325376E+00
609      1        5      0.0      4.6962553005287457E+00  1.8000327825647393E+01  9.8004785071749954E+00
610      1        5      0.0      1.1366920492117510E+01  1.2987865932232847E+01  1.0448901326282039E+01
611      1        5      0.0      9.1519196198069572E+00  1.2074415577735957E+01  1.4498799806821106E+01
612      1        5      0.0      2.4812502561920247E+00  1.7086873242445890E+01  1.3850375709849972E+01
613      1        5      0.0      9.7501224023181177E+00  1.7022976383224353E+01  1.0692846690354770E+01
614      1        5      0.0      6.3130541468857775E+00  1.2010519738302969E+01  9.5565328839382406E+00
615      1        5      0.0      4.0980511926932008E+00  1.3051766278907598E+01  1.3606430077833879E+01
616      1        5      0.0      7.5351177142536763E+00  1.8064221139151893E+01  1.4742743927679410E+01
617      1        1      0.0     -1.8014361248709498E-01  1.0551502325481062E+01  1.9750357771809188E+01
618      1        1      0.0      7.3832999887751534E+00  1.5563958761320986E+01  1.6698615093625826E+01
619      1        1      0.0      5.1682909207850667E+00  1.9523239299203127E+01  2.0748515801376112E+01
620      1        1      0.0     -2.3951412377778754E+00  1.4510781903892228E+01  2.3800252736766684E+01
621      1        2      0.0     -1.1668170324270608E+00  1.8917683157513139E+01  1.9176187985773954E+01
622      1        2      0.0      8.3699770972250978E+00  1.3905225945597541E+01  1.7272785022051142E+01
623      1        2      0.0      6.1549738874675546E+00  1.1157059558233836E+01  2.1322680609644710E+01
624      1        2      0.0     -3.3818202339811951E+00  1.6169515479491558E+01  2.3226086449905239E+01
625      1        2      0.0      6.5741388007606165E+00  1.8609842411518986E+01  1.9466274572997236E+01
626      1        2      0.0      6.2902181509466415E-01  1.3597386724452759E+01  1.6982699260033222E+01
627      1        2      0.0     -1.5859824948503149E+00  1.1464899436061241E+01  2.1032594312260205E+01
628      1        2      0.0      4.3591356497152143E+00  1.6477353889495454E+01  2.3516172281538612E+01
629      1        2      0.0      7.3413801567051316E+00  1.7097298795001585E+01  1.8032594071022793E+01
630      1        2      0.0     -1.3821936361525669E-01  1.2084840333274574E+01  1.8416375758775789E+01
631      1        2      0.0     -2.3532220300693516E+00  1.2977442011070661E+01  2.2466274546629300E+01
632      1        2      0.0      5.1263750033931492E+00  1.7989897954529816E+01  2.2082492626187925E+01
633      1        3      0.0      1.1991438454373302E+00  1.0733133009871763E+01  2.1228880271629297E+01
634      1        3      0.0      1.5740116707154541E+00  1.5745589787221011E+01  2.3319883862742362E+01
635      1        3      0.0      3.7890144765644860E+00  1.9341607963109794E+01  1.9269985868553793E+01
636      1        3      0.0      3.4141480276124119E+00  1.4329151115653749E+01  1.7178981619761956E+01
637      1        3      0.0      3.3581451524610260E+00  1.0352988725059971E+01  2.1748582998814079E+01
638      1        3      0.0     -5.8499020922149969E-01  1.5365446827942836E+01  2.2800181330916836E+01
639      1        3      0.0      1.6300133319829513E+00  1.9721753761993860E+01  1.8750284956912800E+01
640      1        3      0.0      5.5731479366280112E+00  1.4709297068818383E+01  1.7698685335739004E+01
641      1        4      0.0     -7.3682803459350599E-01  1.7997677728644327E+01  1.8312267967944404E+01
642      1        4      0.0      7.9399883387234418E+00  1.2985219012413346E+01  1.8136703280560077E+01
643      1        4      0.0      5.7249861283561732E+00  1.2077064488556708E+01  2.2186601201975073E+01
644      1        4      0.0     -2.9518323067941963E+00  1.7089520727031413E+01  2.2362166293408155E+01
645      1        4      0.0      6.2851820832403851E+00  1.7515428596947633E+01  1.8769423894740555E+01
646      1        4      0.0      9.1797879917056591E-01  1.2502971748538901E+01  1.7679547686276564E+01
647      1        4      0.0     -1.2970243659452811E+00  1.2559312995464229E+01  2.1729444269898700E+01
648      1        4      0.0      4.0701774130021340E+00  1.7571767534669636E+01  2.2819322094164821E+01
649      1        4      0.0      2.3746685948639819E+00  1.0323400385873121E+01  2.0961617044108692E+01
650      1        4      0.0      3.9848572713944436E-01  1.5335857892526219E+01  2.3587146669281424E+01
651      1        4      0.0      2.6134887923062937E+00  1.9751341055300841E+01  1.9537247944959283E+01
652      1        4      0.0      4.5896725870843014E+00  1.4738884643331723E+01  1.6911720028432541E+01
653      1        5      0.0      2.6624743412874524E-01  1.8000327825647393E+01  1.7900274312774993E+01
654      1        5      0.0      6.9369126257175084E+00  1.2987865932232847E+01  1.8548697131882040E+01
655      1        5      0.0      4.7219117534069568E+00  1.2074415577735957E+01  2.2598595612421107E+01
656      1        5      0.0     -1.9487576102079756E+00  1.7086873242445890E+01  2.1950171515449970E+01
657      1        5      0.0      5.3201145359181181E+00  1.7022976383224353E+01  1.8792642495954770E+01
658      1        5      0.0      1.8830462804857779E+00  1.2010519738302969E+01  1.7656328689538238E+01
659      1        5      0.0     -3.3195667370680032E-01  1.3051766278907598E+01  2.1706225883433881E+01
660      1        5      0.0      3.1051098478536758E+00  1.8064221139151893E+01  2.2842539733279409E+01
661      1        1      0.0      8.6798721203129059E+00  2.0576416113281059E+01  3.5507661606091889E+00
662      1        1      0.0      1.6243315721575154E+01  2.5588872549120982E+01  4.9902348242582789E-01
663      1        1      0.0      1.4028306653585068E+01  2.9548153087003126E+01  4.5489241901761117E+00
664      1        1      0.0      6.4648744950221264E+00  2.4535695691692226E+01  7.6006611255666847E+00
665      1        2      0.0      7.6931987003729407E+00  2.8942596945313138E+01  2.9765963745739530E+00
666      1        2      0.0      1.7229992830025097E+01  2.3930139733397539E+01  1.0731934108511441E+00
667      1        2      0.0      1.5014989620267555E+01  2.1181973346033839E+01  5.1230889984447110E+00
668      1        2      0.0      5.4781954988188044E+00  2.6194429267291557E+01  7.0264948387052426E+00
669      1        2      0.0      1.5434154533560617E+01  2.8634756199318989E+01  3.2666829617972382E+00
670      1        2      0.0      9.4890375478946645E+00  2.3622300512252757E+01  7.8310764883322248E-01
671      1        2      0.0      7.2740332379496850E+00  2.1489813223861240E+01  4.8330027010602050E+00
672      1        2      0.0      1.3219151382515214E+01  2.6502267677295453E+01  7.3165806703386114E+00
673      1        2      0.0      1.6201395889505132E+01  2.7122212582801584E+01  1.8330024598227943E+00
674      1        2      0.0      8.7217963691847444E+00  2.2109754121074573E+01  2.2167841475757903E+00
675      1        2      0.0      6.5067937027306488E+00  2.3002355798870660E+01  6.2666829354292997E+00
676      1        2      0.0      1.3986390736193149E+01  2.8014811742329815E+01  5.8829010149879251E+00
677      1        3      0.0      1.0059159578237331E+01  2.0758046797671764E+01  5.0292886604292972E+00
678      1        3      0.0      1.0434027403515454E+01  2.5770503575021010E+01  7.1202922515423630E+00
679      1        3      0.0      1.2649030209364486E+01  2.9366521750909794E+01  3.0703942573537928E+00
680      1        3      0.0      1.2274163760412412E+01  2.4354064903453747E+01  9.7939000856195602E-01
681      1        3      0.0      1.2218160885261026E+01  2.0377902512859972E+01  5.5489913876140822E+00
682      1        3      0.0      8.2750255235785009E+00  2.5390360615742836E+01  6.6005897197168375E+00
683      1        3      0.0      1.0490029064782952E+01  2.9746667549793859E+01  2.5506933457128018E+00
684      1        3      0.0      1.4433163669428012E+01  2.4734210856618386E+01  1.4990937245390046E+00
685      1        4      0.0      8.1231876982064950E+00  2.8022591516444326E+01  2.1126763567444038E+00
686      1        4      0.0      1.6800004071523443E+01  2.3010132800213345E+01  1.9371116693600798E+00
687      1        4      0.0      1.4585001861156174E+01  2.2101978276356711E+01  5.9870095907750747E+00
688      1        4      0.0      5.9081834260058050E+00  2.7114434514831412E+01  6.1625746822081542E+00
689      1        4      0.0      1.5145197816040387E+01  2.7540342384747628E+01  2.5698322835405563E+00
690      1        4      0.0      9.7779945319705668E+00  2.2527885536338900E+01  1.4799560750765659E+00
691      1        4      0.0      7.5629913668547202E+00  2.2584226783264228E+01  5.5298526586987009E+00
692      1        4      0.0      1.2930193145802134E+01  2.7596681322469635E+01  6.6197304829648234E+00
693      1        4      0.0      1.1234684327663983E+01  2.0348314173673124E+01  4.7620254329086951E+00
694      1        4      0.0      9.2585014599394455E+00  2.5360771680326216E+01  7.3875550580814267E+00
695      1        4      0.0      1.1473504525106295E+01  2.9776254843100840E+01  3.3376563337592846E+00
696      1        4      0.0      1.3449688319884302E+01  2.4763798431131722E+01  7.1212841723253850E-01
697      1        5      0.0      9.1262631669287462E+00  2.8025241613447392E+01  1.7006827015749959E+00
698      1        5      0.0      1.5796928358517510E+01  2.3012779720032846E+01  2.3491055206820404E+00
699      1        5      0.0      1.3581927486206958E+01  2.2099329365535958E+01  6.3990040012211056E+00
700      1        5      0.0      6.9112581225920255E+00  2.7111787030245889E+01  5.7505799042499710E+00
701      1        5      0.0      1.4180130268718118E+01  2.7047890171024353E+01  2.5930508847547706E+00
702      1        5      0.0      1.0743062013285778E+01  2.2035433526102967E+01  1.4567370783382403E+00
703      1        5      0.0      8.5280590590932022E+00  2.3076680066707599E+01  5.5066342722338808E+00
704      1        5      0.0      1.1965125580653677E+01  2.8089134926951889E+01  6.6429481220794093E+00
705      1        1      0.0      4.2498642539129063E+00  2.0576416113281059E+01  1.1650561966209187E+01
706      1        1      0.0      1.1813307855175154E+01  2.5588872549120982E+01  8.5988192880258261E+00
707      1        1      0.0      9.5982987871850671E+00  2.9548153087003126E+01  1.2648719995776112E+01
708      1        1      0.0      2.0348666286221251E+00  2.4535695691692226E+01  1.5700456931166686E+01
709      1        2      0.0      3.2631908339729399E+00  2.8942596945313138E+01  1.1076392180173954E+01
710      1        2      0.0      1.2799984963625098E+01  2.3930139733397539E+01  9.1729892164511426E+00
711      1        2      0.0      1.0584981753867556E+01  2.1181973346033839E+01  1.3222884804044710E+01
712      1        2      0.0      1.0481876324188042E+00  2.6194429267291557E+01  1.5126290644305243E+01
713      1        2      0.0      1.1004146667160617E+01  2.8634756199318989E+01  1.1366478767397238E+01
714      1        2      0.0      5.0590296814946649E+00  2.3622300512252757E+01  8.8829034544332206E+00
715      1        2      0.0      2.8440253715496855E+00  2.1489813223861240E+01  1.2932798506660204E+01
716      1        2      0.0      8.7891435161152138E+00  2.6502267677295453E+01  1.5416376475938611E+01
717      1        2      0.0      1.1771388023105132E+01  2.7122212582801584E+01  9.9327982654227949E+00
718      1        2      0.0      4.2917885027847440E+00  2.2109754121074573E+01  1.0316579953175790E+01
719      1        2      0.0      2.0767858363306488E+00  2.3002355798870660E+01  1.4366478741029299E+01
720      1        2      0.0      9.5563828697931505E+00  2.8014811742329815E+01  1.3982696820587924E+01
721      1        3      0.0      5.6291517118373307E+00  2.0758046797671764E+01  1.3129084466029298E+01
722      1        3      0.0      6.0040195371154548E+00  2.5770503575021010E+01  1.5220088057142362E+01
723      1        3      0.0      8.2190223429644860E+00  2.9366521750909794E+01  1.1170190062953791E+01
724      1        3      0.0      7.8441558940124123E+00  2.4354064903453747E+01  9.0791858141619546E+00
725      1        3      0.0      7.7881530188610268E+00  2.0377902512859972E+01  1.3648787193214080E+01
726      1        3      0.0      3.8450176571785009E+00  2.5390360615742836E+01  1.4700385525316836E+01
727      1        3      0.0      6.0600211983829508E+00  2.9746667549793859E+01  1.0650489151312801E+01
728      1        3      0.0      1.0003155803028012E+01  2.4734210856618386E+01  9.5988895301390027E+00
729      1        4      0.0      3.6931798318064946E+00  2.8022591516444326E+01  1.0212472162344405E+01
730      1        4      0.0      1.2369996205123442E+01  2.3010132800213345E+01  1.0036907474960080E+01
731      1        4      0.0      1.0154993994756174E+01  2.2101978276356711E+01  1.4086805396375075E+01
732      1        4      0.0      1.4781755596058042E+00  2.7114434514831412E+01  1.4262370487808154E+01
733      1        4      0.0      1.0715189949640385E+01  2.7540342384747628E+01  1.0669628089140557E+01
734      1        4      0.0      5.3479866655705663E+00  2.2527885536338900E+01  9.5797518806765645E+00
735      1        4      0.0      3.1329835004547193E+00  2.2584226783264228E+01  1.3629648464298700E+01
736      1        4      0.0      8.5001852794021335E+00  2.7596681322469635E+01  1.4719526288564822E+01
737      1        4      0.0      6.8046764612639823E+00  2.0348314173673124E+01  1.2861821238508693E+01
738      1        4      0.0      4.8284935935394451E+00  2.5360771680326216E+01  1.5487350863681426E+01
739      1        4      0.0      7.0434966587062942E+00  2.9776254843100840E+01  1.1437452139359284E+01
740      1        4      0.0      9.0196804534843018E+00  2.4763798431131722E+01  8.8119242228325376E+00
741      1        5      0.0      4.6962553005287457E+00  2.8025241613447392E+01  9.8004785071749954E+00
742      1        5      0.0      1.1366920492117510E+01  2.3012779720032846E+01  1.0448901326282039E+01
743      1        5      0.0      9.1519196198069572E+00  2.2099329365535958E+01  1.4498799806821106E+01
744      1        5      0.0      2.4812502561920247E+00  2.7111787030245889E+01  1.3850375709849972E+01
745      1        5      0.0      9.7501224023181177E+00  2.7047890171024353E+01  1.0692846690354770E+01
746      1        5      0.0      6.3130541468857775E+00  2.2035433526102967E+01  9.5565328839382406E+00
747      1        5      0.0      4.0980511926932008E+00  2.3076680066707599E+01  1.3606430077833879E+01
748      1        5      0.0      7.5351177142536763E+00  2.8089134926951889E+01  1.4742743927679410E+01
749      1        1      0.0     -1.8014361248709498E-01  2.0576416113281059E+01  1.9750357771809188E+01
750      1        1      0.0      7.3832999887751534E+00  2.5588872549120982E+01  1.6698615093625826E+01
751      1        1      0.0      5.1682909207850667E+00  2.9548153087003126E+01  2.0748515801376112E+01
752      1        1      0.0     -2.3951412377778754E+00  2.4535695691692226E+01  2.3800252736766684E+01
753      1        2      0.0     -1.1668170324270608E+00  2.8942596945313138E+01  1.9176187985773954E+01
754      1        2      0.0      8.3699770972250978E+00  2.3930139733397539E+01  1.7272785022051142E+01
755      1        2      0.0      6.1549738874675546E+00  2.1181973346033839E+01  2.1322680609644710E+01
756      1        2      0.0     -3.3818202339811951E+00  2.6194429267291557E+01  2.3226086449905239E+01
757      1        2      0.0      6.5741388007606165E+00  2.8634756199318989E+01  1.9466274572997236E+01
758      1        2      0.0      6.2902181509466415E-01  2.3622300512252757E+01  1.6982699260033222E+01
759      1        2      0.0     -1.5859824948503149E+00  2.1489813223861240E+01  2.1032594312260205E+01
760      1        2      0.0      4.3591356497152143E+00  2.6502267677295453E+01  2.3516172281538612E+01
761      1        2      0.0      7.3413801567051316E+00  2.7122212582801584E+01  1.8032594071022793E+01
762      1        2      0.0     -1.3821936361525669E-01  2.2109754121074573E+01  1.8416375758775789E+01
763      1        2      0.0     -2.3532220300693516E+00  2.3002355798870660E+01  2.2466274546629300E+01
764      1        2      0.0      5.1263750033931492E+00  2.8014811742329815E+01  2.2082492626187925E+01
765      1        3      0.0      1.1991438454373302E+00  2.0758046797671764E+01  2.1228880271629297E+01
766      1        3      0.0      1.5740116707154541E+00  2.5770503575021010E+01  2.3319883862742362E+01
767      1        3      0.0      3.7890144765644860E+00  2.9366521750909794E+01  1.9269985868553793E+01
768      1        3      0.0      3.4141480276124119E+00  2.4354064903453747E+01  1.7178981619761956E+01
769      1        3      0.0      3.3581451524610260E+00  2.0377902512859972E+01  2.1748582998814079E+01
770      1        3      0.0     -5.8499020922149969E-01  2.5390360615742836E+01  2.2800181330916836E+01
771      1        3      0.0      1.6300133319829513E+00  2.9746667549793859E+01  1.8750284956912800E+01
772      1        3      0.0      5.5731479366280112E+00  2.4734210856618386E+01  1.7698685335739004E+01
773      1        4      0.0     -7.3682803459350599E-01  2.8022591516444326E+01  1.8312267967944404E+01
774      1        4      0.0      7.9399883387234418E+00  2.3010132800213345E+01  1.8136703280560077E+01
775      1        4      0.0      5.7249861283561732E+00  2.2101978276356711E+01  2.2186601201975073E+01
776      1        4      0.0     -2.9518323067941963E+00  2.7114434514831412E+01  2.2362166293408155E+01
777      1        4      0.0      6.2851820832403851E+00  2.7540342384747628E+01  1.8769423894740555E+01
778      1        4      0.0      9.1797879917056591E-01  2.2527885536338900E+01  1.7679547686276564E+01
779      1        4      0.0     -1.2970243659452811E+00  2.2584226783264228E+01  2.1729444269898700E+01
780      1        4      0.0      4.0701774130021340E+00  2.7596681322469635E+01  2.2819322094164821E+01
781      1        4      0.0      2.3746685948639819E+00  2.0348314173673124E+01  2.0961617044108692E+01
782      1        4      0.0      3.9848572713944436E-01  2.5360771680326216E+01  2.3587146669281424E+01
783      1        4      0.0      2.6134887923062937E+00  2.9776254843100840E+01  1.9537247944959283E+01
784      1        4      0.0      4.5896725870843014E+00  2.4763798431131722E+01  1.6911720028432541E+01
785      1        5      0.0      2.6624743412874524E-01  2.8025241613447392E+01  1.7900274312774993E+01
786      1        5      0.0      6.9369126257175084E+00  2.3012779720032846E+01  1.8548697131882040E+01
787      1        5      0.0      4.7219117534069568E+00  2.2099329365535958E+01  2.2598595612421107E+01
788      1        5      0.0     -1.9487576102079756E+00  2.7111787030245889E+01  2.1950171515449970E+01
789      1        5      0.0      5.3201145359181181E+00  2.7047890171024353E+01  1.8792642495954770E+01
790      1        5      0.0      1.8830462804857779E+00  2.2035433526102967E+01  1.7656328689538238E+01
791      1        5      0.0     -3.3195667370680032E-01  2.3076680066707599E+01  2.1706225883433881E+01
792      1        5      0.0      3.1051098478536758E+00  2.8089134926951889E+01  2.2842539733279409E+01
793      1        1      0.0      1.7725917423612906E+01  5.2658853768106151E-01  3.5507661606091889E+00
794      1        1      0.0      2.5289361024875156E+01  5.5390449735209870E+00  4.9902348242582789E-01
795      1        1      0.0      2.3074351956885071E+01  9.4983255114031255E+00  4.5489241901761117E+00
796      1        1      0.0      1.5510919798322126E+01  4.4858681160922274E+00  7.6006611255666847E+00
797      1        2      0.0      1.6739244003672940E+01  8.8927693697131396E+00  2.9765963745739530E+00
798      1        2      0.0      2.6276038133325095E+01  3.8803121577975408E+00  1.0731934108511441E+00
799      1        2      0.0      2.4061034923567554E+01  1.1321457704338378E+00  5.1230889984447110E+00
800      1        2      0.0      1.4524240802118802E+01  6.1446016916915589E+00  7.0264948387052426E+00
801      1        2      0.0      2.4480199836860621E+01  8.5849286237189872E+00  3.2666829617972382E+00
802      1        2      0.0      1.8535082851194662E+01  3.5724729366527601E+00  7.8310764883322248E-01
803      1        2      0.0      1.6320078541249686E+01  1.4399856482612419E+00  4.8330027010602050E+00
804      1        2      0.0      2.2265196685815212E+01  6.4524401016954549E+00  7.3165806703386114E+00
805      1        2      0.0      2.5247441192805134E+01  7.0723850072015866E+00  1.8330024598227943E+00
806      1        2      0.0      1.7767841672484742E+01  2.0599265454745748E+00  2.2167841475757903E+00
807      1        2      0.0      1.5552839006030647E+01  2.9525282232706602E+00  6.2666829354292997E+00
808      1        2      0.0      2.3032436039493152E+01  7.9649841667298160E+00  5.8829010149879251E+00
809      1        3      0.0      1.9105204881537333E+01  7.0821922207176380E-01  5.0292886604292972E+00
810      1        3      0.0      1.9480072706815456E+01  5.7206759994210126E+00  7.1202922515423630E+00
811      1        3      0.0      2.1695075512664488E+01  9.3166941753097934E+00  3.0703942573537928E+00
812      1        3      0.0      2.1320209063712415E+01  4.3042373278537500E+00  9.7939000856195602E-01
813      1        3      0.0      2.1264206188561023E+01  3.2807493725997300E-01  5.5489913876140822E+00
814      1        3      0.0      1.7321070826878501E+01  5.3405330401428373E+00  6.6005897197168375E+00
815      1        3      0.0      1.9536074368082954E+01  9.6968399741938587E+00  2.5506933457128018E+00
816      1        3      0.0      2.3479208972728010E+01  4.6843832810183850E+00  1.4990937245390046E+00
817      1        4      0.0      1.7169233001506495E+01  7.9727639408443265E+00  2.1126763567444038E+00
818      1        4      0.0      2.5846049374823441E+01  2.9603052246133466E+00  1.9371116693600798E+00
819      1        4      0.0      2.3631047164456174E+01  2.0521507007567097E+00  5.9870095907750747E+00
820      1        4      0.0      1.4954228729305804E+01  7.0646069392314121E+00  6.1625746822081542E+00
821      1        4      0.0      2.4191243119340385E+01  7.4905148091476326E+00  2.5698322835405563E+00
822      1        4      0.0      1.8824039835270565E+01  2.4780579607389006E+00  1.4799560750765659E+00
823      1        4      0.0      1.6609036670154719E+01  2.5343992076642299E+00  5.5298526586987009E+00
824      1        4      0.0      2.1976238449102137E+01  7.5468537468696377E+00  6.6197304829648234E+00
825      1        4      0.0      2.0280729630963982E+01  2.9848659807312228E-01  4.7620254329086951E+00
826      1        4      0.0      1.8304546763239443E+01  5.3109441047262207E+00  7.3875550580814267E+00
827      1        4      0.0      2.0519549828406294E+01  9.7264272675008403E+00  3.3376563337592846E+00
828      1        4      0.0      2.2495733623184304E+01  4.7139708555317235E+00  7.1212841723253850E-01
829      1        5      0.0      1.8172308470228746E+01  7.9754140378473934E+00  1.7006827015749959E+00
830      1        5      0.0      2.4842973661817510E+01  2.9629521444328488E+00  2.3491055206820404E+00
831      1        5      0.0      2.2627972789506959E+01  2.0495017899359596E+00  6.3990040012211056E+00
832      1        5      0.0      1.5957303425892023E+01  7.0619594546458915E+00  5.7505799042499710E+00
833      1        5      0.0      2.3226175572018118E+01  6.9980625954243552E+00  2.5930508847547706E+00
834      1        5      0.0      1.9789107316585778E+01  1.9856059505029700E+00  1.4567370783382403E+00
835      1        5      0.0      1.7574104362393200E+01  3.0268524911075989E+00  5.5066342722338808E+00
836      1        5      0.0      2.1011170883953678E+01  8.0393073513518942E+00  6.6429481220794093E+00
837      1        1      0.0      1.3295909557212907E+01  5.2658853768106151E-01  1.1650561966209187E+01
838      1        1      0.0      2.0859353158475155E+01  5.5390449735209870E+00  8.5988192880258261E+00
839      1        1      0.0      1.8644344090485067E+01  9.4983255114031255E+00  1.2648719995776112E+01
840      1        1      0.0      1.1080911931922126E+01  4.4858681160922274E+00  1.5700456931166686E+01
841      1        2      0.0      1.2309236137272940E+01  8.8927693697131396E+00  1.1076392180173954E+01
842      1        2      0.0      2.1846030266925094E+01  3.8803121577975408E+00  9.1729892164511426E+00
843      1        2      0.0      1.9631027057167554E+01  1.1321457704338378E+00  1.3222884804044710E+01
844      1        2      0.0      1.0094232935718802E+01  6.1446016916915589E+00  1.5126290644305243E+01
845      1        2      0.0      2.0050191970460620E+01  8.5849286237189872E+00  1.1366478767397238E+01
846      1        2      0.0      1.4105074984794660E+01  3.5724729366527601E+00  8.8829034544332206E+00
847      1        2      0.0      1.1890070674849687E+01  1.4399856482612419E+00  1.2932798506660204E+01
848      1        2      0.0      1.7835188819415212E+01  6.4524401016954549E+00  1.5416376475938611E+01
849      1        2      0.0      2.0817433326405133E+01  7.0723850072015866E+00  9.9327982654227949E+00
850      1        2      0.0      1.3337833806084744E+01  2.0599265454745748E+00  1.0316579953175790E+01
851      1        2      0.0      1.1122831139630646E+01  2.9525282232706602E+00  1.4366478741029299E+01
852      1        2      0.0      1.8602428173093152E+01  7.9649841667298160E+00  1.3982696820587924E+01
853      1        3      0.0      1.4675197015137330E+01  7.0821922207176380E-01  1.3129084466029298E+01
854      1        3      0.0      1.5050064840415454E+01  5.7206759994210126E+00  1.5220088057142362E+01
855      1        3      0.0      1.7265067646264487E+01  9.3166941753097934E+00  1.1170190062953791E+01
856      1        3      0.0      1.6890201197312415E+01  4.3042373278537500E+00  9.0791858141619546E+00
857      1        3      0.0      1.6834198322161026E+01  3.2807493725997300E-01  1.3648787193214080E+01
858      1        3      0.0      1.2891062960478500E+01  5.3405330401428373E+00  1.4700385525316836E+01
859      1        3      0.0      1.5106066501682953E+01  9.6968399741938587E+00  1.0650489151312801E+01
860      1        3      0.0      1.9049201106328010E+01  4.6843832810183850E+00  9.5988895301390027E+00
861      1        4      0.0      1.2739225135106494E+01  7.9727639408443265E+00  1.0212472162344405E+01
862      1        4      0.0      2.1416041508423440E+01  2.9603052246133466E+00  1.0036907474960080E+01
863      1        4      0.0      1.9201039298056170E+01  2.0521507007567097E+00  1.4086805396375075E+01
864      1        4      0.0      1.0524220862905802E+01  7.0646069392314121E+00  1.4262370487808154E+01
865      1        4      0.0      1.9761235252940384E+01  7.4905148091476326E+00  1.0669628089140557E+01
866      1        4      0.0      1.4394031968870566E+01  2.4780579607389006E+00  9.5797518806765645E+00
867      1        4      0.0      1.2179028803754717E+01  2.5343992076642299E+00  1.3629648464298700E+01
868      1        4      0.0      1.7546230582702137E+01  7.5468537468696377E+00  1.4719526288564822E+01
869      1        4      0.0      1.5850721764563982E+01  2.9848659807312228E-01  1.2861821238508693E+01
870      1        4      0.0      1.3874538896839445E+01  5.3109441047262207E+00  1.5487350863681426E+01
871      1        4      0.0      1.6089541962006294E+01  9.7264272675008403E+00  1.1437452139359284E+01
872      1        4      0.0      1.8065725756784303E+01  4.7139708555317235E+00  8.8119242228325376E+00
873      1        5      0.0      1.3742300603828745E+01  7.9754140378473934E+00  9.8004785071749954E+00
874      1        5      0.0      2.0412965795417509E+01  2.9629521444328488E+00  1.0448901326282039E+01
875      1        5      0.0      1.8197964923106959E+01  2.0495017899359596E+00  1.4498799806821106E+01
876      1        5      0.0      1.1527295559492023E+01  7.0619594546458915E+00  1.3850375709849972E+01
877      1        5      0.0      1.8796167705618117E+01  6.9980625954243552E+00  1.0692846690354770E+01
878      1        5      0.0      1.5359099450185775E+01  1.9856059505029700E+00  9.5565328839382406E+00
879      1        5      0.0      1.3144096495993201E+01  3.0268524911075989E+00  1.3606430077833879E+01
880      1        5      0.0      1.6581163017553678E+01  8.0393073513518942E+00  1.4742743927679410E+01
881      1        1      0.0      8.8659016908129047E+00  5.2658853768106151E-01  1.9750357771809188E+01
882      1        1      0.0      1.6429345292075155E+01  5.5390449735209870E+00  1.6698615093625826E+01
883      1        1      0.0      1.4214336224085068E+01  9.4983255114031255E+00  2.0748515801376112E+01
884      1        1      0.0      6.6509040655221243E+00  4.4858681160922274E+00  2.3800252736766684E+01
885      1        2      0.0      7.8792282708729386E+00  8.8927693697131396E+00  1.9176187985773954E+01
886      1        2      0.0      1.7416022400525094E+01  3.8803121577975408E+00  1.7272785022051142E+01
887      1        2      0.0      1.5201019190767553E+01  1.1321457704338378E+00  2.1322680609644710E+01
888      1        2      0.0      5.6642250693188023E+00  6.1446016916915589E+00  2.3226086449905239E+01
889      1        2      0.0      1.5620184104060618E+01  8.5849286237189872E+00  1.9466274572997236E+01
890      1        2      0.0      9.6750671183946597E+00  3.5724729366527601E+00  1.6982699260033222E+01
891      1        2      0.0      7.4600628084496865E+00  1.4399856482612419E+00  2.1032594312260205E+01
892      1        2      0.0      1.3405180953015211E+01  6.4524401016954549E+00  2.3516172281538612E+01
893      1        2      0.0      1.6387425460005133E+01  7.0723850072015866E+00  1.8032594071022793E+01
894      1        2      0.0      8.9078259396847432E+00  2.0599265454745748E+00  1.8416375758775789E+01
895      1        2      0.0      6.6928232732306459E+00  2.9525282232706602E+00  2.2466274546629300E+01
896      1        2      0.0      1.4172420306693152E+01  7.9649841667298160E+00  2.2082492626187925E+01
897      1        3      0.0      1.0245189148737330E+01  7.0821922207176380E-01  2.1228880271629297E+01
898      1        3      0.0      1.0620056974015453E+01  5.7206759994210126E+00  2.3319883862742362E+01
899      1        3      0.0      1.2835059779864485E+01  9.3166941753097934E+00  1.9269985868553793E+01
900      1        3      0.0      1.2460193330912414E+01  4.3042373278537500E+00  1.7178981619761956E+01
901      1        3      0.0      1.2404190455761023E+01  3.2807493725997300E-01  2.1748582998814079E+01
902      1        3      0.0      8.4610550940784996E+00  5.3405330401428373E+00  2.2800181330916836E+01
903      1        3      0.0      1.0676058635282955E+01  9.6968399741938587E+00  1.8750284956912800E+01
904      1        3      0.0      1.4619193239928011E+01  4.6843832810183850E+00  1.7698685335739004E+01
905      1        4      0.0      8.3092172687064938E+00  7.9727639408443265E+00  1.8312267967944404E+01
906      1        4      0.0      1.6986033642023440E+01  2.9603052246133466E+00  1.8136703280560077E+01
907      1        4      0.0      1.4771031431656171E+01  2.0521507007567097E+00  2.2186601201975073E+01
908      1        4      0.0      6.0942129965058021E+00  7.0646069392314121E+00  2.2362166293408155E+01
909      1        4      0.0      1.5331227386540382E+01  7.4905148091476326E+00  1.8769423894740555E+01
910      1        4      0.0      9.9640241024705656E+00  2.4780579607389006E+00  1.7679547686276564E+01
911      1        4      0.0      7.7490209373547172E+00  2.5343992076642299E+00  2.1729444269898700E+01
912      1        4      0.0      1.3116222716302135E+01  7.5468537468696377E+00  2.2819322094164821E+01
913      1        4      0.0      1.1420713898163982E+01  2.9848659807312228E-01  2.0961617044108692E+01
914      1        4      0.0      9.4445310304394443E+00  5.3109441047262207E+00  2.3587146669281424E+01
915      1        4      0.0      1.1659534095606292E+01  9.7264272675008403E+00  1.9537247944959283E+01
916      1        4      0.0      1.3635717890384303E+01  4.7139708555317235E+00  1.6911720028432541E+01
917      1        5      0.0      9.3122927374287450E+00  7.9754140378473934E+00  1.7900274312774993E+01
918      1        5      0.0      1.5982957929017507E+01  2.9629521444328488E+00  1.8548697131882040E+01
919      1        5      0.0      1.3767957056706958E+01  2.0495017899359596E+00  2.2598595612421107E+01
920      1        5      0.0      7.0972876930920226E+00  7.0619594546458915E+00  2.1950171515449970E+01
921      1        5      0.0      1.4366159839218117E+01  6.9980625954243552E+00  1.8792642495954770E+01
922      1        5      0.0      1.0929091583785777E+01  1.9856059505029700E+00  1.7656328689538238E+01
923      1        5      0.0      8.7140886295931992E+00  3.0268524911075989E+00  2.1706225883433881E+01
924      1        5      0.0      1.2151155151153676E+01  8.0393073513518942E+00  2.2842539733279409E+01
925      1        1      0.0      1.7725917423612906E+01  1.0551502325481062E+01  3.5507661606091889E+00
926      1        1      0.0      2.5289361024875156E+01  1.5563958761320986E+01  4.9902348242582789E-01
927      1        1      0.0      2.3074351956885071E+01  1.9523239299203127E+01  4.5489241901761117E+00
928      1        1      0.0      1.5510919798322126E+01  1.4510781903892228E+01  7.6006611255666847E+00
929      1        2      0.0      1.6739244003672940E+01  1.8917683157513139E+01  2.9765963745739530E+00
930      1        2      0.0      2.6276038133325095E+01  1.3905225945597541E+01  1.0731934108511441E+00
931      1        2      0.0      2.4061034923567554E+01  1.1157059558233836E+01  5.1230889984447110E+00
932      1        2      0.0      1.4524240802118802E+01  1.6169515479491558E+01  7.0264948387052426E+00
933      1        2      0.0      2.4480199836860621E+01  1.8609842411518986E+01  3.2666829617972382E+00
934      1        2      0.0      1.8535082851194662E+01  1.3597386724452759E+01  7.8310764883322248E-01
935      1        2      0.0      1.6320078541249686E+01  1.1464899436061241E+01  4.8330027010602050E+00
936      1        2      0.0      2.2265196685815212E+01  1.6477353889495454E+01  7.3165806703386114E+00
937      1        2      0.0      2.5247441192805134E+01  1.7097298795001585E+01  1.8330024598227943E+00
938      1        2      0.0      1.7767841672484742E+01  1.2084840333274574E+01  2.2167841475757903E+00
939      1        2      0.0      1.5552839006030647E+01  1.2977442011070661E+01  6.2666829354292997E+00
940      1        2      0.0      2.3032436039493152E+01  1.7989897954529816E+01  5.8829010149879251E+00
941      1        3      0.0      1.9105204881537333E+01  1.0733133009871763E+01  5.0292886604292972E+00
942      1        3      0.0      1.9480072706815456E+01  1.5745589787221011E+01  7.1202922515423630E+00
943      1        3      0.0      2.1695075512664488E+01  1.9341607963109794E+01  3.0703942573537928E+00
944      1        3      0.0      2.1320209063712415E+01  1.4329151115653749E+01  9.7939000856195602E-01
945      1        3      0.0      2.1264206188561023E+01  1.0352988725059971E+01  5.5489913876140822E+00
946      1        3      0.0      1.7321070826878501E+01  1.5365446827942836E+01  6.6005897197168375E+00
947      1        3      0.0      1.9536074368082954E+01  1.9721753761993860E+01  2.5506933457128018E+00
948      1        3      0.0      2.3479208972728010E+01  1.4709297068818383E+01  1.4990937245390046E+00
949      1        4      0.0      1.7169233001506495E+01  1.7997677728644327E+01  2.1126763567444038E+00
950      1        4      0.0      2.5846049374823441E+01  1.2985219012413346E+01  1.9371116693600798E+00
951      1        4      0.0      2.3631047164456174E+01  1.2077064488556708E+01  5.9870095907750747E+00
952      1        4      0.0      1.4954228729305804E+01  1.7089520727031413E+01  6.1625746822081542E+00
953      1        4      0.0      2.4191243119340385E+01  1.7515428596947633E+01  2.5698322835405563E+00
954      1        4      0.0      1.8824039835270565E+01  1.2502971748538901E+01  1.4799560750765659E+00
955      1        4      0.0      1.6609036670154719E+01  1.2559312995464229E+01  5.5298526586987009E+00
956      1        4      0.0      2.1976238449102137E+01  1.7571767534669636E+01  6.6197304829648234E+00
957      1        4      0.0      2.0280729630963982E+01  1.0323400385873121E+01  4.7620254329086951E+00
958      1        4      0.0      1.8304546763239443E+01  1.5335857892526219E+01  7.3875550580814267E+00
959      1        4      0.0      2.0519549828406294E+01  1.9751341055300841E+01  3.3376563337592846E+00
960      1        4      0.0      2.2495733623184304E+01  1.4738884643331723E+01  7.1212841723253850E-01
961      1        5      0.0      1.8172308470228746E+01  1.8000327825647393E+01  1.7006827015749959E+00
962      1        5      0.0      2.4842973661817510E+01  1.2987865932232847E+01  2.3491055206820404E+00
963      1        5      0.0      2.2627972789506959E+01  1.2074415577735957E+01  6.3990040012211056E+00
964      1        5      0.0      1.5957303425892023E+01  1.7086873242445890E+01  5.7505799042499710E+00
965      1        5      0.0      2.3226175572018118E+01  1.7022976383224353E+01  2.5930508847547706E+00
966      1        5      0.0      1.9789107316585778E+01  1.2010519738302969E+01  1.4567370783382403E+00
967      1        5      0.0      1.7574104362393200E+01  1.3051766278907598E+01  5.5066342722338808E+00
968      1        5      0.0      2.1011170883953678E+01  1.8064221139151893E+01  6.6429481220794093E+00
969      1        1      0.0      1.3295909557212907E+01  1.0551502325481062E+01  1.1650561966209187E+01
970      1        1      0.0      2.0859353158475155E+01  1.5563958761320986E+01  8.5988192880258261E+00
971      1        1      0.0      1.8644344090485067E+01  1.9523239299203127E+01  1.2648719995776112E+01
972      1        1      0.0      1.1080911931922126E+01  1.4510781903892228E+01  1.5700456931166686E+01
973      1        2      0.0      1.2309236137272940E+01  1.8917683157513139E+01  1.1076392180173954E+01
974      1        2      0.0      2.1846030266925094E+01  1.3905225945597541E+01  9.1729892164511426E+00
975      1        2      0.0      1.9631027057167554E+01  1.1157059558233836E+01  1.3222884804044710E+01
976      1        2      0.0      1.0094232935718802E+01  1.6169515479491558E+01  1.5126290644305243E+01
977      1        2      0.0      2.0050191970460620E+01  1.8609842411518986E+01  1.1366478767397238E+01
978      1        2      0.0      1.4105074984794660E+01  1.3597386724452759E+01  8.8829034544332206E+00
979      1        2      0.0      1.1890070674849687E+01  1.1464899436061241E+01  1.2932798506660204E+01
980      1        2      0.0      1.7835188819415212E+01  1.6477353889495454E+01  1.5416376475938611E+01
981      1        2      0.0      2.0817433326405133E+01  1.7097298795001585E+01  9.9327982654227949E+00
982      1        2      0.0      1.3337833806084744E+01  1.2084840333274574E+01  1.0316579953175790E+01
983      1        2      0.0      1.1122831139630646E+01  1.2977442011070661E+01  1.4366478741029299E+01
984      1        2      0.0      1.8602428173093152E+01  1.7989897954529816E+01  1.3982696820587924E+01
985      1        3      0.0      1.4675197015137330E+01  1.0733133009871763E+01  1.3129084466029298E+01
986      1        3      0.0      1.5050064840415454E+01  1.5745589787221011E+01  1.5220088057142362E+01
987      1        3      0.0      1.7265067646264487E+01  1.9341607963109794E+01  1.1170190062953791E+01
988      1        3      0.0      1.6890201197312415E+01  1.4329151115653749E+01  9.0791858141619546E+00
989      1        3      0.0      1.6834198322161026E+01  1.0352988725059971E+01  1.3648787193214080E+01
990      1        3      0.0      1.2891062960478500E+01  1.5365446827942836E+01  1.4700385525316836E+01
991      1        3      0.0      1.5106066501682953E+01  1.9721753761993860E+01  1.0650489151312801E+01
992      1        3      0.0      1.9049201106328010E+01  1.4709297068818383E+01  9.5988895301390027E+00
993      1        4      0.0      1.2739225135106494E+01  1.7997677728644327E+01  1.0212472162344405E+01
994      1        4      0.0      2.1416041508423440E+01  1.2985219012413346E+01  1.0036907474960080E+01
995      1        4      0.0      1.9201039298056170E+01  1.2077064488556708E+01  1.4086805396375075E+01
996      1        4      0.0      1.0524220862905802E+01  1.7089520727031413E+01  1.4262370487808154E+01
997      1        4      0.0      1.9761235252940384E+01  1.7515428596947633E+01  1.0669628089140557E+01
998      1        4      0.0      1.4394031968870566E+01  1.2502971748538901E+01  9.5797518806765645E+00
999      1        4      0.0      1.2179028803754717E+01  1.2559312995464229E+01  1.3629648464298700E+01
1000     1        4      0.0      1.7546230582702137E+01  1.7571767534669636E+01  1.4719526288564822E+01
1001     1        4      0.0      1.5850721764563982E+01  1.0323400385873121E+01  1.2861821238508693E+01
1002     1        4      0.0      1.3874538896839445E+01  1.5335857892526219E+01  1.5487350863681426E+01
1003     1        4      0.0      1.6089541962006294E+01  1.9751341055300841E+01  1.1437452139359284E+01
1004     1        4      0.0      1.8065725756784303E+01  1.4738884643331723E+01  8.8119242228325376E+00
1005     1        5      0.0      1.3742300603828745E+01  1.8000327825647393E+01  9.8004785071749954E+00
1006     1        5      0.0      2.0412965795417509E+01  1.2987865932232847E+01  1.0448901326282039E+01
1007     1        5      0.0      1.8197964923106959E+01  1.2074415577735957E+01  1.4498799806821106E+01
1008     1        5      0.0      1.1527295559492023E+01  1.7086873242445890E+01  1.3850375709849972E+01
1009     1        5      0.0      1.8796167705618117E+01  1.7022976383224353E+01  1.0692846690354770E+01
1010     1        5      0.0      1.5359099450185775E+01  1.2010519738302969E+01  9.5565328839382406E+00
1011     1        5      0.0      1.3144096495993201E+01  1.3051766278907598E+01  1.3606430077833879E+01
1012     1        5      0.0      1.6581163017553678E+01  1.8064221139151893E+01  1.4742743927679410E+01
1013     1        1      0.0      8.8659016908129047E+00  1.0551502325481062E+01  1.9750357771809188E+01
1014     1        1      0.0      1.6429345292075155E+01  1.5563958761320986E+01  1.6698615093625826E+01
1015     1        1      0.0      1.4214336224085068E+01  1.9523239299203127E+01  2.0748515801376112E+01
1016     1        1      0.0      6.6509040655221243E+00  1.4510781903892228E+01  2.3800252736766684E+01
1017     1        2      0.0      7.8792282708729386E+00  1.8917683157513139E+01  1.9176187985773954E+01
1018     1        2      0.0      1.7416022400525094E+01  1.3905225945597541E+01  1.7272785022051142E+01
1019     1        2      0.0      1.5201019190767553E+01  1.1157059558233836E+01  2.1322680609644710E+01
1020     1        2      0.0      5.6642250693188023E+00  1.6169515479491558E+01  2.3226086449905239E+01
1021     1        2      0.0      1.5620184104060618E+01  1.8609842411518986E+01  1.9466274572997236E+01
1022     1        2      0.0      9.6750671183946597E+00  1.3597386724452759E+01  1.6982699260033222E+01
1023     1        2      0.0      7.4600628084496865E+00  1.1464899436061241E+01  2.1032594312260205E+01
1024     1        2      0.0      1.3405180953015211E+01  1.6477353889495454E+01  2.3516172281538612E+01
1025     1        2      0.0      1.6387425460005133E+01  1.7097298795001585E+01  1.8032594071022793E+01
1026     1        2      0.0      8.9078259396847432E+00  1.2084840333274574E+01  1.8416375758775789E+01
1027     1        2      0.0      6.6928232732306459E+00  1.2977442011070661E+01  2.2466274546629300E+01
1028     1        2      0.0      1.4172420306693152E+01  1.7989897954529816E+01  2.2082492626187925E+01
1029     1        3      0.0      1.0245189148737330E+01  1.0733133009871763E+01  2.1228880271629297E+01
1030     1        3      0.0      1.0620056974015453E+01  1.5745589787221011E+01  2.3319883862742362E+01
1031     1        3      0.0      1.2835059779864485E+01  1.9341607963109794E+01  1.9269985868553793E+01
1032     1        3      0.0      1.2460193330912414E+01  1.4329151115653749E+01  1.7178981619761956E+01
1033     1        3      0.0      1.2404190455761023E+01  1.0352988725059971E+01  2.1748582998814079E+01
1034     1        3      0.0      8.4610550940784996E+00  1.5365446827942836E+01  2.2800181330916836E+01
1035     1        3      0.0      1.0676058635282955E+01  1.9721753761993860E+01  1.8750284956912800E+01
1036     1        3      0.0      1.4619193239928011E+01  1.4709297068818383E+01  1.7698685335739004E+01
1037     1        4      0.0      8.3092172687064938E+00  1.7997677728644327E+01  1.8312267967944404E+01
1038     1        4      0.0      1.6986033642023440E+01  1.2985219012413346E+01  1.8136703280560077E+01
1039     1        4      0.0      1.4771031431656171E+01  1.2077064488556708E+01  2.2186601201975073E+01
1040     1        4      0.0      6.0942129965058021E+00  1.7089520727031413E+01  2.2362166293408155E+01
1041     1        4      0.0      1.5331227386540382E+01  1.7515428596947633E+01  1.8769423894740555E+01
1042     1        4      0.0      9.9640241024705656E+00  1.2502971748538901E+01  1.7679547686276564E+01
1043     1        4      0.0      7.7490209373547172E+00  1.2559312995464229E+01  2.1729444269898700E+01
1044     1        4      0.0      1.3116222716302135E+01  1.7571767534669636E+01  2.2819322094164821E+01
1045     1        4      0.0      1.1420713898163982E+01  1.0323400385873121E+01  2.0961617044108692E+01
1046     1        4      0.0      9.4445310304394443E+00  1.5335857892526219E+01  2.3587146669281424E+01
1047     1        4      0.0      1.1659534095606292E+01  1.9751341055300841E+01  1.9537247944959283E+01
1048     1        4      0.0      1.3635717890384303E+01  1.4738884643331723E+01  1.6911720028432541E+01
1049     1        5      0.0      9.3122927374287450E+00  1.8000327825647393E+01  1.7900274312774993E+01
1050     1        5      0.0      1.5982957929017507E+01  1.2987865932232847E+01  1.8548697131882040E+01
1051     1        5      0.0      1.3767957056706958E+01  1.2074415577735957E+01  2.2598595612421107E+01
1052     1        5      0.0      7.0972876930920226E+00  1.7086873242445890E+01  2.1950171515449970E+01
1053     1        5      0.0      1.4366159839218117E+01  1.7022976383224353E+01  1.8792642495954770E+01
1054     1        5      0.0      1.0929091583785777E+01  1.2010519738302969E+01  1.7656328689538238E+01
1055     1        5      0.0      8.7140886295931992E+00  1.3051766278907598E+01  2.1706225883433881E+01
1056     1        5      0.0      1.2151155151153676E+01  1.8064221139151893E+01  2.2842539733279409E+01
1057     1        1      0.0      1.7725917423612906E+01  2.0576416113281059E+01  3.5507661606091889E+00
1058     1        1      0.0      2.5289361024875156E+01  2.5588872549120982E+01  4.9902348242582789E-01
1059     1        1      0.0      2.3074351956885071E+01  2.9548153087003126E+01  4.5489241901761117E+00
1060     1        1      0.0      1.5510919798322126E+01  2.4535695691692226E+01  7.6006611255666847E+00
1061     1        2      0.0      1.6739244003672940E+01  2.8942596945313138E+01  2.9765963745739530E+00
1062     1        2      0.0      2.6276038133325095E+01  2.3930139733397539E+01  1.0731934108511441E+00
1063     1        2      0.0      2.4061034923567554E+01  2.1181973346033839E+01  5.1230889984447110E+00
1064     1        2      0.0      1.4524240802118802E+01  2.6194429267291557E+01  7.0264948387052426E+00
1065     1        2      0.0      2.4480199836860621E+01  2.8634756199318989E+01  3.2666829617972382E+00
1066     1        2      0.0      1.8535082851194662E+01  2.3622300512252757E+01  7.8310764883322248E-01
1067     1        2      0.0      1.6320078541249686E+01  2.1489813223861240E+01  4.8330027010602050E+00
1068     1        2      0.0      2.2265196685815212E+01  2.6502267677295453E+01  7.3165806703386114E+00
1069     1        2      0.0      2.5247441192805134E+01  2.7122212582801584E+01  1.8330024598227943E+00
1070     1        2      0.0      1.7767841672484742E+01  2.2109754121074573E+01  2.2167841475757903E+00
1071     1        2      0.0      1.5552839006030647E+01  2.3002355798870660E+01  6.2666829354292997E+00
1072     1        2      0.0      2.3032436039493152E+01  2.8014811742329815E+01  5.8829010149879251E+00
1073     1        3      0.0      1.9105204881537333E+01  2.0758046797671764E+01  5.0292886604292972E+00
1074     1        3      0.0      1.9480072706815456E+01  2.5770503575021010E+01  7.1202922515423630E+00
1075     1        3      0.0      2.1695075512664488E+01  2.9366521750909794E+01  3.0703942573537928E+00
1076     1        3      0.0      2.1320209063712415E+01  2.4354064903453747E+01  9.7939000856195602E-01
1077     1        3      0.0      2.1264206188561023E+01  2.0377902512859972E+01  5.5489913876140822E+00
1078     1        3      0.0      1.7321070826878501E+01  2.5390360615742836E+01  6.6005897197168375E+00
1079     1        3      0.0      1.9536074368082954E+01  2.9746667549793859E+01  2.5506933457128018E+00
1080     1        3      0.0      2.3479208972728010E+01  2.4734210856618386E+01  1.4990937245390046E+00
1081     1        4      0.0      1.7169233001506495E+01  2.8022591516444326E+01  2.1126763567444038E+00
1082     1        4      0.0      2.5846049374823441E+01  2.3010132800213345E+01  1.9371116693600798E+00
1083     1        4      0.0      2.3631047164456174E+01  2.2101978276356711E+01  5.9870095907750747E+00
1084     1        4      0.0      1.4954228729305804E+01  2.7114434514831412E+01  6.1625746822081542E+00
1085     1        4      0.0      2.4191243119340385E+01  2.7540342384747628E+01  2.5698322835405563E+00
1086     1        4      0.0      1.8824039835270565E+01  2.2527885536338900E+01  1.4799560750765659E+00
1087     1        4      0.0      1.6609036670154719E+01  2.2584226783264228E+01  5.5298526586987009E+00
1088     1        4      0.0      2.1976238449102137E+01  2.7596681322469635E+01  6.6197304829648234E+00
1089     1        4      0.0      2.0280729630963982E+01  2.0348314173673124E+01  4.7620254329086951E+00
1090     1        4      0.0      1.8304546763239443E+01  2.5360771680326216E+01  7.3875550580814267E+00
1091     1        4      0.0      2.0519549828406294E+01  2.9776254843100840E+01  3.3376563337592846E+00
1092     1        4      0.0      2.2495733623184304E+01  2.4763798431131722E+01  7.1212841723253850E-01
1093     1        5      0.0      1.8172308470228746E+01  2.8025241613447392E+01  1.7006827015749959E+00
1094     1        5      0.0      2.4842973661817510E+01  2.3012779720032846E+01  2.3491055206820404E+00
1095     1        5      0.0      2.2627972789506959E+01  2.2099329365535958E+01  6.3990040012211056E+00
1096     1        5      0.0      1.5957303425892023E+01  2.7111787030245889E+01  5.7505799042499710E+00
1097     1        5      0.0      2.3226175572018118E+01  2.7047890171024353E+01  2.5930508847547706E+00
1098     1        5      0.0      1.9789107316585778E+01  2.2035433526102967E+01  1.4567370783382403E+00
1099     1        5      0.0      1.7574104362393200E+01  2.3076680066707599E+01  5.5066342722338808E+00
1100     1        5      0.0      2.1011170883953678E+01  2.8089134926951889E+01  6.6429481220794093E+00
1101     1        1      0.0      1.3295909557212907E+01  2.0576416113281059E+01  1.1650561966209187E+01
1102     1        1      0.0      2.0859353158475155E+01  2.5588872549120982E+01  8.5988192880258261E+00
1103     1        1      0.0      1.8644344090485067E+01  2.9548153087003126E+01  1.2648719995776112E+01
1104     1        1      0.0      1.1080911931922126E+01  2.4535695691692226E+01  1.5700456931166686E+01
1105     1        2      0.0      1.2309236137272940E+01  2.8942596945313138E+01  1.1076392180173954E+01
1106     1        2      0.0      2.1846030266925094E+01  2.3930139733397539E+01  9.1729892164511426E+00
1107     1        2      0.0      1.9631027057167554E+01  2.1181973346033839E+01  1.3222884804044710E+01
1108     1        2      0.0      1.0094232935718802E+01  2.6194429267291557E+01  1.5126290644305243E+01
1109     1        2      0.0      2.0050191970460620E+01  2.8634756199318989E+01  1.1366478767397238E+01
1110     1        2      0.0      1.4105074984794660E+01  2.3622300512252757E+01  8.8829034544332206E+00
1111     1        2      0.0      1.1890070674849687E+01  2.1489813223861240E+01  1.2932798506660204E+01
1112     1        2      0.0      1.7835188819415212E+01  2.6502267677295453E+01  1.5416376475938611E+01
1113     1        2      0.0      2.0817433326405133E+01  2.7122212582801584E+01  9.9327982654227949E+00
1114     1        2      0.0      1.3337833806084744E+01  2.2109754121074573E+01  1.0316579953175790E+01
1115     1        2      0.0      1.1122831139630646E+01  2.3002355798870660E+01  1.4366478741029299E+01
1116     1        2      0.0      1.8602428173093152E+01  2.8014811742329815E+01  1.3982696820587924E+01
1117     1        3      0.0      1.4675197015137330E+01  2.0758046797671764E+01  1.3129084466029298E+01
1118     1        3      0.0      1.5050064840415454E+01  2.5770503575021010E+01  1.5220088057142362E+01
1119     1        3      0.0      1.7265067646264487E+01  2.9366521750909794E+01  1.1170190062953791E+01
1120     1        3      0.0      1.6890201197312415E+01  2.4354064903453747E+01  9.0791858141619546E+00
1121     1        3      0.0      1.6834198322161026E+01  2.0377902512859972E+01  1.3648787193214080E+01
1122     1        3      0.0      1.2891062960478500E+01  2.5390360615742836E+01  1.4700385525316836E+01
1123     1        3      0.0      1.5106066501682953E+01  2.9746667549793859E+01  1.0650489151312801E+01
1124     1        3      0.0      1.9049201106328010E+01  2.4734210856618386E+01  9.5988895301390027E+00
1125     1        4      0.0      1.2739225135106494E+01  2.8022591516444326E+01  1.0212472162344405E+01
1126     1        4      0.0      2.1416041508423440E+01  2.3010132800213345E+01  1.0036907474960080E+01
1127     1        4      0.0      1.9201039298056170E+01  2.2101978276356711E+01  1.4086805396375075E+01
1128     1        4      0.0      1.0524220862905802E+01  2.7114434514831412E+01  1.4262370487808154E+01
1129     1        4      0.0      1.9761235252940384E+01  2.7540342384747628E+01  1.0669628089140557E+01
1130     1        4      0.0      1.4394031968870566E+01  2.2527885536338900E+01  9.5797518806765645E+00
1131     1        4      0.0      1.2179028803754717E+01  2.2584226783264228E+01  1.3629648464298700E+01
1132     1        4      0.0      1.7546230582702137E+01  2.7596681322469635E+01  1.4719526288564822E+01
1133     1        4      0.0      1.5850721764563982E+01  2.0348314173673124E+01  1.2861821238508693E+01
1134     1        4      0.0      1.3874538896839445E+01  2.5360771680326216E+01  1.5487350863681426E+01
1135     1        4      0.0      1.6089541962006294E+01  2.9776254843100840E+01  1.1437452139359284E+01
1136     1        4      0.0      1.8065725756784303E+01  2.4763798431131722E+01  8.8119242228325376E+00
1137     1        5      0.0      1.3742300603828745E+01  2.8025241613447392E+01  9.8004785071749954E+00
1138     1        5      0.0      2.0412965795417509E+01  2.3012779720032846E+01  1.0448901326282039E+01
1139     1        5      0.0      1.8197964923106959E+01  2.2099329365535958E+01  1.4498799806821106E+01
1140     1        5      0.0      1.1527295559492023E+01  2.7111787030245889E+01  1.3850375709849972E+01
1141     1        5      0.0      1.8796167705618117E+01  2.7047890171024353E+01  1.0692846690354770E+01
1142     1        5      0.0      1.5359099450185775E+01  2.2035433526102967E+01  9.5565328839382406E+00
1143     1        5      0.0      1.3144096495993201E+01  2.3076680066707599E+01  1.3606430077833879E+01
1144     1        5      0.0      1.6581163017553678E+01  2.8089134926951889E+01  1.4742743927679410E+01
1145     1        1      0.0      8.8659016908129047E+00  2.0576416113281059E+01  1.9750357771809188E+01
1146     1        1      0.0      1.6429345292075155E+01  2.5588872549120982E+01  1.6698615093625826E+01
1147     1        1      0.0      1.4214336224085068E+01  2.9548153087003126E+01  2.0748515801376112E+01
1148     1        1      0.0      6.6509040655221243E+00  2.4535695691692226E+01  2.3800252736766684E+01
1149     1        2      0.0      7.8792282708729386E+00  2.8942596945313138E+01  1.9176187985773954E+01
1150     1        2      0.0      1.7416022400525094E+01  2.3930139733397539E+01  1.7272785022051142E+01
1151     1        2      0.0      1.5201019190767553E+01  2.1181973346033839E+01  2.1322680609644710E+01
1152     1        2      0.0      5.6642250693188023E+00  2.6194429267291557E+01  2.3226086449905239E+01
1153     1        2      0.0      1.5620184104060618E+01  2.8634756199318989E+01  1.9466274572997236E+01
1154     1        2      0.0      9.6750671183946597E+00  2.3622300512252757E+01  1.6982699260033222E+01
1155     1        2      0.0      7.4600628084496865E+00  2.1489813223861240E+01  2.1032594312260205E+01
1156     1        2      0.0      1.3405180953015211E+01  2.6502267677295453E+01  2.3516172281538612E+01
1157     1        2      0.0      1.6387425460005133E+01  2.7122212582801584E+01  1.8032594071022793E+01
1158     1        2      0.0      8.9078259396847432E+00  2.2109754121074573E+01  1.8416375758775789E+01
1159     1        2      0.0      6.6928232732306459E+00  2.3002355798870660E+01  2.2466274546629300E+01
1160     1        2      0.0      1.4172420306693152E+01  2.8014811742329815E+01  2.2082492626187925E+01
1161     1        3      0.0      1.0245189148737330E+01  2.0758046797671764E+01  2.1228880271629297E+01
1162     1        3      0.0      1.0620056974015453E+01  2.5770503575021010E+01  2.3319883862742362E+01
1163     1        3      0.0      1.2835059779864485E+01  2.9366521750909794E+01  1.9269985868553793E+01
1164     1        3      0.0      1.2460193330912414E+01  2.4354064903453747E+01  1.7178981619761956E+01
1165     1        3      0.0      1.2404190455761023E+01  2.0377902512859972E+01  2.1748582998814079E+01
1166     1        3      0.0      8.4610550940784996E+00  2.5390360615742836E+01  2.2800181330916836E+01
1167     1        3      0.0      1.0676058635282955E+01  2.9746667549793859E+01  1.8750284956912800E+01
1168     1        3      0.0      1.4619193239928011E+01  2.4734210856618386E+01  1.7698685335739004E+01
1169     1        4      0.0      8.3092172687064938E+00  2.8022591516444326E+01  1.8312267967944404E+01
1170     1        4      0.0      1.6986033642023440E+01  2.3010132800213345E+01  1.8136703280560077E+01
1171     1        4      0.0      1.4771031431656171E+01  2.2101978276356711E+01  2.2186601201975073E+01
1172     1        4      0.0      6.0942129965058021E+00  2.7114434514831412E+01  2.2362166293408155E+01
1173     1        4      0.0      1.5331227386540382E+01  2.7540342384747628E+01  1.8769423894740555E+01
1174     1        4      0.0      9.9640241024705656E+00  2.2527885536338900E+01  1.7679547686276564E+01
1175     1        4      0.0      7.7490209373547172E+00  2.2584226783264228E+01  2.1729444269898700E+01
1176     1        4      0.0      1.3116222716302135E+01  2.7596681322469635E+01  2.2819322094164821E+01
1177     1        4      0.0      1.1420713898163982E+01  2.0348314173673124E+01  2.0961617044108692E+01
1178     1        4      0.0      9.4445310304394443E+00  2.5360771680326216E+01  2.3587146669281424E+01
1179     1        4      0.0      1.1659534095606292E+01  2.9776254843100840E+01  1.9537247944959283E+01
1180     1        4      0.0      1.3635717890384303E+01  2.4763798431131722E+01  1.6911720028432541E+01
1181     1        5      0.0      9.3122927374287450E+00  2.8025241613447392E+01  1.7900274312774993E+01
1182     1        5      0.0      1.5982957929017507E+01  2.3012779720032846E+01  1.8548697131882040E+01
1183     1        5      0.0      1.3767957056706958E+01  2.2099329365535958E+01  2.2598595612421107E+01
1184     1        5      0.0      7.0972876930920226E+00  2.7111787030245889E+01  2.1950171515449970E+01
1185     1        5      0.0      1.4366159839218117E+01  2.7047890171024353E+01  1.8792642495954770E+01
1186     1        5      0.0      1.0929091583785777E+01  2.2035433526102967E+01  1.7656328689538238E+01
1187     1        5      0.0      8.7140886295931992E+00  2.3076680066707599E+01  2.1706225883433881E+01
1188     1        5      0.0      1.2151155151153676E+01  2.8089134926951889E+01  2.2842539733279409E+01

